@relation openjpa_Train_R3-weka.filters.unsupervised.attribute.Remove-R2-3-weka.filters.unsupervised.attribute.StringToNominal-R1

@attribute release {0.9.6,0.9.0}
@attribute loc numeric
@attribute wmc numeric
@attribute assignmentsQty numeric
@attribute mathOperationsQty numeric
@attribute qtyTryCatch numeric
@attribute qtyReturn numeric
@attribute fanin numeric
@attribute fanout numeric
@attribute age numeric
@attribute nAuth numeric
@attribute nr numeric
@attribute nSmell numeric
@attribute buggy {false,true}

@data
0.9.6,1,1,0,0,0,0,2,0,185,2,4,0,false
0.9.6,5,3,1,0,0,0,1,1,185,3,5,0,true
0.9.0,3,1,0,0,0,1,0,0,0,1,4,0,false
0.9.0,9,3,0,0,1,1,0,2,45,1,4,1,false
0.9.6,14,2,2,0,1,1,0,4,168,1,1,0,false
0.9.0,3,1,1,0,0,0,0,0,45,3,7,0,false
0.9.0,4,2,0,0,0,2,0,0,45,3,6,0,false
0.9.6,3,3,0,0,0,1,0,0,185,1,1,0,false
0.9.6,40,11,9,0,3,1,2,4,185,4,19,5,true
0.9.6,4,2,0,0,0,2,0,1,168,1,1,1,false
0.9.6,9,3,6,0,0,1,1,2,185,1,1,0,false
0.9.6,3,1,0,0,0,1,1,0,185,2,2,0,true
0.9.0,31,1,5,0,0,0,1,0,45,1,3,24,false
0.9.6,19,7,6,2,1,3,7,4,185,4,7,8,false
0.9.6,8,4,3,0,0,1,5,2,185,4,13,1,true
0.9.0,3,1,0,0,0,1,14,1,45,3,13,0,false
0.9.0,3,1,1,0,0,0,0,0,45,1,3,0,false
0.9.6,3,1,0,0,0,1,1,0,185,1,1,0,false
0.9.6,1,1,0,0,0,0,2,0,185,2,4,0,false
0.9.6,3,1,0,0,0,1,0,0,168,2,2,0,false
0.9.6,3,1,0,0,0,1,0,0,168,1,1,0,false
0.9.0,10,2,0,0,1,0,0,3,45,2,6,0,false
0.9.0,3,1,0,0,0,1,0,3,45,2,7,0,false
0.9.6,6,1,3,0,0,1,2,1,185,3,4,0,false
0.9.6,9,1,0,0,1,1,0,4,185,4,19,0,true
0.9.0,4,1,0,0,0,0,0,1,0,1,8,0,false
0.9.6,23,17,5,2,0,0,1,0,94,1,2,0,false
0.9.6,3,1,1,0,0,0,0,0,185,3,4,0,false
0.9.0,3,1,0,0,0,0,0,0,0,1,4,0,false
0.9.0,3,1,0,0,0,1,0,0,45,1,3,0,false
0.9.0,4,3,0,0,0,2,2,2,0,1,5,0,false
0.9.6,4,1,1,0,0,1,0,0,168,2,5,1,false
0.9.0,3,1,1,0,0,0,0,0,0,2,12,0,false
0.9.0,4,3,0,0,0,0,1,1,45,3,11,0,false
0.9.0,2,1,0,0,0,0,0,0,37,2,3,0,false
0.9.6,3,1,0,0,0,1,0,0,168,1,1,0,false
0.9.0,3,1,0,0,0,0,0,0,45,4,9,0,false
0.9.0,9,2,4,0,0,1,2,1,37,2,3,2,false
0.9.6,3,1,0,0,0,1,0,0,185,2,4,0,false
0.9.0,4,2,1,2,0,1,0,2,0,1,5,0,false
0.9.6,10,3,0,0,0,3,0,0,168,3,5,0,false
0.9.6,3,1,0,0,0,1,0,0,168,3,3,0,false
0.9.6,20,10,6,0,1,1,3,7,185,4,14,2,true
0.9.6,1,1,0,0,0,0,0,0,185,2,2,0,false
0.9.0,10,5,2,0,0,0,1,1,37,2,4,0,false
0.9.0,9,2,0,0,1,1,1,2,45,3,7,1,false
0.9.0,3,1,0,0,0,0,0,0,45,2,5,0,false
0.9.0,4,2,0,0,0,0,0,1,0,1,4,0,false
0.9.0,3,1,0,0,0,1,0,0,37,2,3,0,false
0.9.6,10,4,0,0,1,0,2,3,185,4,19,0,true
0.9.6,19,11,6,0,0,6,2,3,168,1,2,4,false
0.9.0,5,3,1,0,0,2,0,1,0,1,4,0,false
0.9.6,3,1,0,0,0,1,2,0,168,2,2,0,false
0.9.6,3,1,0,0,0,1,2,0,185,4,13,0,true
0.9.6,3,1,0,0,0,1,0,0,94,1,1,0,false
0.9.6,3,1,0,0,0,1,0,0,185,2,4,0,false
0.9.0,22,14,6,0,0,7,2,0,37,1,2,2,false
0.9.0,6,2,1,0,0,0,1,0,37,2,2,0,false
0.9.0,4,3,0,0,0,2,0,2,0,1,8,0,false
0.9.0,4,1,0,0,0,0,0,2,45,3,13,0,false
0.9.6,2,1,0,0,0,0,0,0,185,3,5,0,false
0.9.0,3,1,0,0,0,1,9,0,0,2,9,0,false
0.9.6,3,1,1,0,0,0,0,0,185,2,5,0,false
0.9.6,1,1,0,0,0,0,2,0,185,1,2,0,false
0.9.0,3,1,0,0,0,1,0,0,0,1,5,0,false
0.9.0,3,1,0,0,0,1,0,0,45,2,5,0,false
0.9.0,3,1,0,0,0,0,0,0,0,1,6,0,false
0.9.0,3,1,0,0,0,0,0,0,45,3,13,0,false
0.9.0,4,1,0,0,0,0,0,2,45,3,13,0,false
0.9.6,4,2,0,0,0,2,0,0,185,2,2,0,false
0.9.0,1,1,0,0,0,0,2,0,45,2,5,0,false
0.9.6,1,1,0,0,0,0,2,0,185,2,2,0,true
0.9.0,3,1,0,0,0,0,0,0,0,1,6,0,false
0.9.0,3,1,0,0,0,1,1,0,37,2,6,0,false
0.9.6,3,1,0,0,0,1,0,0,185,3,5,0,false
0.9.0,5,2,1,1,0,1,11,2,45,2,4,0,false
0.9.6,3,1,0,0,0,0,0,0,168,3,5,0,false
0.9.0,3,1,0,0,0,1,0,2,45,2,7,0,false
0.9.6,4,3,2,0,0,0,0,1,168,1,1,0,false
0.9.0,4,2,1,0,0,1,0,0,45,2,4,0,false
0.9.6,22,9,13,0,0,2,3,5,168,2,7,1,false
0.9.6,3,1,0,0,0,1,0,0,185,4,14,0,true
0.9.6,9,3,2,0,0,0,0,6,185,3,6,0,true
0.9.6,3,1,0,0,0,0,0,0,185,2,5,0,false
0.9.0,16,11,4,0,0,5,8,4,45,1,5,6,false
0.9.0,19,7,3,0,0,5,2,2,45,3,11,1,false
0.9.0,5,2,2,0,0,0,2,1,45,3,8,0,false
0.9.0,2,1,0,0,0,0,0,0,45,1,4,0,false
0.9.0,3,1,0,0,0,0,0,0,0,1,6,0,false
0.9.0,1,1,0,0,0,0,2,0,45,3,6,0,false
0.9.6,1,1,0,0,0,0,1,0,168,1,1,0,true
0.9.6,5,3,0,1,0,3,2,0,168,1,1,0,false
0.9.0,4,1,1,0,0,0,0,1,45,3,11,0,false
0.9.6,3,1,0,0,0,1,0,1,168,3,4,0,false
0.9.0,4,1,0,0,0,0,0,2,45,3,13,0,false
0.9.0,3,1,0,0,0,1,0,0,0,1,5,0,false
0.9.0,52,5,12,0,0,0,1,13,45,4,8,25,false
0.9.6,4,4,0,1,0,1,0,3,94,2,2,0,false
0.9.0,12,4,4,0,0,1,4,2,45,3,8,2,false
0.9.0,3,1,0,0,0,0,5,0,0,1,7,0,false
0.9.6,3,2,0,0,0,1,1,0,168,2,7,0,false
0.9.6,3,1,0,0,0,1,0,0,185,3,6,0,true
0.9.0,22,6,4,0,3,1,4,0,37,2,2,2,false
0.9.6,2,1,0,0,0,0,0,0,185,3,5,0,false
0.9.0,12,2,4,1,1,1,0,2,37,2,2,5,false
0.9.0,3,1,0,0,0,1,0,2,45,2,7,0,false
0.9.6,1,1,0,0,0,0,0,0,185,2,5,0,false
0.9.0,3,1,0,0,0,1,0,0,37,2,4,0,false
0.9.0,7,4,3,0,0,2,7,0,45,2,6,0,false
0.9.6,2,1,0,0,0,0,1,1,185,3,6,0,true
0.9.6,8,2,0,0,1,1,0,2,185,2,2,1,true
0.9.0,10,4,3,0,0,0,1,2,45,4,9,2,false
0.9.6,3,1,0,0,0,1,1,0,168,2,5,0,false
0.9.6,3,1,0,0,0,0,0,0,168,3,5,0,false
0.9.0,3,1,0,0,0,0,0,0,45,3,13,0,false
0.9.0,3,1,0,0,0,1,0,0,45,2,6,0,false
0.9.6,3,1,0,0,0,0,0,0,185,2,4,0,false
0.9.0,3,1,0,0,0,1,3,0,45,2,4,0,false
0.9.0,3,1,0,0,0,1,0,0,45,3,11,0,false
0.9.6,1,1,0,0,0,0,0,0,185,2,4,0,false
0.9.6,10,3,0,0,0,3,2,0,185,2,3,0,true
0.9.0,3,1,0,0,0,1,0,2,45,1,5,0,false
0.9.6,26,6,7,0,1,2,1,6,185,3,5,2,false
0.9.6,3,1,0,0,0,1,0,0,185,2,5,0,false
0.9.0,4,3,0,0,0,0,1,0,45,2,6,0,false
0.9.6,3,1,0,0,0,1,3,0,185,4,13,0,true
0.9.6,11,5,0,0,1,4,1,1,94,1,1,0,false
0.9.0,3,1,0,0,0,0,0,2,0,1,6,0,false
0.9.0,16,5,1,0,1,1,4,6,45,3,13,0,false
0.9.6,3,1,0,0,0,1,0,0,185,4,16,0,false
0.9.0,3,1,0,0,0,0,2,0,0,1,7,0,false
0.9.0,3,1,0,0,0,1,0,0,45,1,7,0,false
0.9.0,3,1,0,0,0,1,1,0,37,2,5,0,false
0.9.6,3,1,0,0,0,0,0,3,185,2,3,0,true
0.9.0,109,71,15,0,1,10,4,4,45,1,5,0,false
0.9.6,3,1,0,0,0,1,0,0,185,3,10,0,false
0.9.0,3,1,0,0,0,0,0,3,45,2,7,0,false
0.9.0,2,1,0,0,0,0,0,0,37,2,2,0,false
0.9.6,3,2,0,0,0,0,0,0,185,1,1,0,false
0.9.0,7,6,1,0,0,4,0,1,45,2,5,0,false
0.9.0,3,1,0,0,0,0,0,1,37,2,5,0,false
0.9.6,6,3,3,0,0,0,0,0,168,2,6,0,false
0.9.6,2,1,0,0,0,0,0,0,168,1,2,0,false
0.9.6,27,9,12,3,0,0,4,6,94,4,7,9,false
0.9.6,3,2,0,0,0,0,1,0,168,1,1,0,false
0.9.6,3,1,0,0,0,0,0,0,168,3,5,0,false
0.9.0,3,1,0,0,0,0,0,1,37,2,4,0,false
0.9.0,3,1,0,0,0,1,1,1,37,2,4,0,false
0.9.0,1,1,0,0,0,0,3,0,37,2,3,0,false
0.9.0,1,1,0,0,0,0,1,0,0,1,4,0,false
0.9.0,3,1,1,0,0,0,0,0,45,1,4,0,false
0.9.0,3,1,0,0,0,1,0,0,37,2,4,0,false
0.9.6,8,8,4,1,0,1,1,6,185,1,1,1,false
0.9.6,1,1,0,0,0,0,4,0,185,2,2,0,true
0.9.0,8,1,0,0,1,0,0,4,0,1,8,0,false
0.9.6,3,1,1,0,0,0,3,0,168,1,1,0,false
0.9.6,3,1,0,0,0,1,1,0,185,1,1,0,false
0.9.6,3,1,0,0,0,1,0,0,185,1,1,0,false
0.9.6,23,6,4,1,1,2,2,5,185,2,4,2,false
0.9.6,3,1,1,0,0,0,0,0,185,2,4,0,false
0.9.0,3,1,0,0,0,1,0,2,45,2,7,0,false
0.9.0,8,1,0,0,0,1,1,1,45,2,4,0,false
0.9.6,3,2,0,0,0,1,0,0,168,1,1,1,false
0.9.6,10,2,0,0,1,1,0,5,185,4,19,0,true
0.9.6,3,1,0,0,0,0,0,0,185,1,1,0,false
0.9.0,3,1,0,0,0,0,0,0,45,2,5,0,false
0.9.6,5,2,1,0,0,2,3,1,185,3,9,0,false
0.9.0,3,1,0,0,0,1,1,1,0,2,13,0,false
0.9.6,3,1,0,0,0,1,0,0,185,2,5,0,false
0.9.6,21,8,6,0,0,1,1,5,185,3,6,1,true
0.9.0,3,2,0,0,0,1,16,0,45,2,6,0,false
0.9.6,3,1,1,0,0,0,0,0,168,1,1,0,false
0.9.0,3,1,0,0,0,0,0,1,45,2,7,0,false
0.9.6,11,5,8,0,0,0,0,1,168,2,5,0,true
0.9.6,10,2,2,0,0,2,0,0,185,1,1,5,false
0.9.6,3,1,1,0,0,0,0,0,94,2,2,0,false
0.9.6,42,22,16,0,0,1,0,15,185,3,6,0,true
0.9.6,3,1,1,0,0,0,0,0,185,4,13,0,true
0.9.0,3,1,0,0,0,1,0,1,45,3,13,0,false
0.9.0,3,1,0,0,0,1,0,0,37,2,4,0,false
0.9.0,3,1,0,0,0,1,0,0,45,2,7,0,false
0.9.6,6,4,3,1,0,1,2,0,185,3,9,0,false
0.9.6,3,1,0,0,0,1,0,0,185,2,4,0,false
0.9.0,1,1,0,0,0,0,6,0,0,1,6,0,false
0.9.6,5,1,0,0,0,0,0,2,185,3,10,0,false
0.9.6,16,10,2,2,0,10,0,3,185,4,13,5,true
0.9.0,5,2,1,0,0,2,9,3,45,3,8,2,false
0.9.6,1,1,0,0,0,0,0,0,168,1,1,0,false
0.9.6,3,1,0,0,0,1,0,0,185,2,5,0,false
0.9.6,3,1,0,0,0,1,0,0,168,1,2,0,false
0.9.0,7,3,3,0,0,2,2,2,37,3,6,0,false
0.9.0,9,1,1,0,1,1,1,0,45,1,4,0,false
0.9.0,3,1,0,0,0,1,0,1,37,2,4,0,false
0.9.6,1,1,0,0,0,0,0,0,185,2,5,0,false
0.9.6,4,2,1,0,0,0,0,1,168,3,3,0,false
0.9.0,3,1,0,0,0,1,1,1,45,2,10,0,false
0.9.0,3,1,0,0,0,1,2,1,45,2,4,0,false
0.9.6,3,1,0,2,0,1,0,0,20,1,1,0,false
0.9.0,1,1,0,0,0,0,1,0,45,2,7,0,false
0.9.0,3,1,0,0,0,1,0,0,0,1,4,0,false
0.9.6,3,1,0,0,0,1,0,1,185,2,3,0,true
0.9.0,4,1,0,0,0,0,0,1,37,3,6,0,false
0.9.0,3,1,0,0,0,1,0,0,45,1,5,0,false
0.9.0,3,1,0,0,0,1,0,0,45,2,4,0,false
0.9.0,3,3,0,0,0,1,0,0,45,3,13,0,false
0.9.6,2,1,0,0,0,0,0,0,185,1,1,0,false
0.9.0,8,5,1,0,0,1,3,2,37,1,2,1,false
0.9.0,3,1,0,0,0,0,0,3,45,2,7,0,false
0.9.0,13,4,5,1,0,4,0,0,45,3,11,6,false
0.9.0,1,1,0,0,0,0,1,0,37,2,2,0,false
0.9.0,3,1,0,0,0,1,0,0,45,2,8,0,false
0.9.0,3,2,0,0,0,0,0,0,37,2,3,0,false
0.9.6,6,6,4,0,0,0,0,1,168,3,5,2,false
0.9.6,3,1,0,0,0,0,0,0,168,3,5,0,false
0.9.6,9,2,5,0,0,0,1,0,94,2,2,0,false
0.9.0,2,1,0,0,0,0,0,0,37,2,4,0,false
0.9.0,18,7,0,0,0,7,1,2,0,1,6,0,false
0.9.0,3,1,0,0,0,0,0,3,45,2,7,0,false
0.9.6,3,1,0,0,0,1,0,0,168,1,1,0,false
0.9.0,3,1,0,0,0,1,0,0,0,1,4,0,false
0.9.0,3,1,0,0,0,1,9,0,0,2,9,0,false
0.9.0,3,1,0,0,0,1,0,0,45,2,7,0,false
0.9.0,8,2,0,0,1,1,0,0,0,1,5,0,false
0.9.0,3,1,0,1,0,1,0,2,0,1,7,0,false
0.9.6,1,1,0,0,0,0,1,0,185,1,2,0,false
0.9.6,3,1,0,0,0,1,0,0,185,2,4,0,false
0.9.6,7,3,3,0,0,2,1,0,185,1,1,0,false
0.9.0,3,1,0,0,0,1,0,1,37,2,4,0,false
0.9.6,3,1,0,0,0,1,0,1,185,2,3,0,true
0.9.0,8,3,1,3,0,3,1,2,37,2,6,0,false
0.9.0,11,5,2,0,0,1,0,1,37,2,6,3,false
0.9.6,3,1,1,0,0,0,0,0,185,2,5,0,false
0.9.0,3,1,0,0,0,1,0,1,37,3,6,0,false
0.9.6,8,2,0,0,1,0,0,2,185,2,2,1,true
0.9.0,3,1,0,0,0,1,0,0,45,1,3,0,false
0.9.0,1,1,0,0,0,0,2,0,45,2,7,0,false
0.9.0,3,1,0,0,0,1,0,0,0,1,5,0,false
0.9.6,8,2,0,0,1,2,0,0,168,1,1,0,false
0.9.6,2,1,0,0,0,0,1,0,185,3,6,0,true
0.9.0,3,1,0,0,0,1,23,1,37,2,3,0,false
0.9.6,3,1,0,0,0,1,0,0,185,1,1,0,false
0.9.6,19,8,8,0,0,1,0,0,168,1,1,1,false
0.9.0,1,1,0,0,0,0,1,0,45,1,4,0,false
0.9.0,1,1,0,0,0,0,0,0,45,3,8,0,false
0.9.6,3,1,0,0,0,0,1,1,185,4,14,0,true
0.9.6,2,1,0,0,0,0,0,0,185,2,2,0,false
0.9.0,3,1,0,0,0,0,0,0,0,1,5,0,false
0.9.6,3,1,1,0,0,0,0,0,168,1,2,0,false
0.9.6,3,1,1,0,0,0,0,0,168,1,2,0,false
0.9.6,3,1,0,0,0,1,0,0,185,2,6,0,true
0.9.6,3,1,0,0,0,1,20,0,185,4,16,0,false
0.9.0,3,1,0,0,0,1,0,1,37,2,4,0,false
0.9.6,11,6,1,0,0,1,0,0,168,3,6,0,false
0.9.0,1,1,0,0,0,0,0,0,45,3,8,0,false
0.9.0,3,1,0,0,0,1,0,0,37,2,3,0,false
0.9.0,5,2,3,0,0,1,1,0,37,2,3,0,false
0.9.0,4,1,1,0,0,1,0,1,45,2,4,0,false
0.9.6,7,2,3,0,0,0,1,2,185,4,16,0,false
0.9.6,3,1,0,0,0,1,0,0,168,3,5,0,false
0.9.0,23,13,11,0,0,0,1,8,37,1,2,2,false
0.9.6,35,18,10,0,1,0,2,7,94,2,2,0,false
0.9.0,3,2,0,0,0,1,0,1,0,1,5,1,false
0.9.0,3,1,0,0,0,1,0,0,0,1,4,0,false
0.9.6,3,1,1,0,0,0,0,0,185,1,1,0,false
0.9.6,11,3,1,0,1,1,0,2,185,4,19,0,true
0.9.0,9,4,1,0,1,0,0,3,45,3,11,0,false
0.9.6,1,1,0,0,0,0,4,0,168,2,2,0,false
0.9.6,1,1,0,0,0,0,2,0,185,1,1,0,false
0.9.6,12,10,0,0,0,10,7,0,185,1,1,2,false
0.9.0,3,1,0,0,0,1,0,0,0,1,4,0,false
0.9.0,4,1,0,0,0,0,2,2,45,3,8,0,false
0.9.6,3,1,0,0,0,1,0,0,185,1,1,0,false
0.9.6,3,1,0,0,0,1,0,1,185,2,3,0,true
0.9.0,4,3,1,0,0,2,1,0,0,1,8,0,false
0.9.6,3,1,0,0,0,0,0,0,185,2,4,0,false
0.9.0,7,3,2,0,0,2,0,0,0,2,12,0,false
0.9.6,1,1,0,0,0,0,0,0,185,2,5,0,false
0.9.0,3,1,0,0,0,0,0,1,45,3,10,0,false
0.9.0,5,2,0,0,0,2,0,3,45,2,4,1,false
0.9.0,3,1,0,0,0,1,0,1,37,3,6,0,false
0.9.6,4,2,1,0,0,1,2,0,168,1,1,0,false
0.9.0,3,1,0,0,0,1,0,0,37,2,4,0,false
0.9.6,7,3,1,0,0,3,0,1,168,1,1,0,false
0.9.6,3,1,0,0,0,1,0,0,94,1,2,0,false
0.9.6,1,1,0,0,0,0,0,0,185,2,5,0,false
0.9.0,9,4,1,0,0,0,0,1,37,2,3,0,false
0.9.6,8,5,1,0,0,4,0,1,168,1,1,0,false
0.9.6,3,1,1,0,0,0,0,0,168,3,3,0,false
0.9.0,3,1,1,0,0,0,1,1,37,2,6,0,false
0.9.0,19,8,7,0,0,0,0,11,37,2,4,1,false
0.9.6,3,1,0,0,0,0,0,0,168,3,5,0,false
0.9.6,3,1,0,0,0,0,0,0,185,2,5,0,false
0.9.6,2,1,0,0,0,0,0,0,185,1,1,0,false
0.9.0,3,2,0,0,0,0,0,1,37,3,9,0,false
0.9.6,5,2,2,0,0,0,0,4,168,1,1,3,false
0.9.0,10,4,4,0,0,2,3,1,45,2,4,0,false
0.9.6,3,1,0,0,0,1,14,0,185,4,19,0,true
0.9.6,3,1,0,0,0,1,1,0,185,3,10,0,false
0.9.0,3,1,0,0,0,0,0,0,0,1,6,0,false
0.9.6,9,3,2,0,0,1,0,6,168,3,4,0,false
0.9.0,8,2,0,0,1,2,1,0,45,2,7,2,false
0.9.6,46,19,25,0,0,1,2,12,168,2,7,8,false
0.9.0,4,1,1,1,0,1,1,1,37,2,3,3,false
0.9.6,5,1,1,0,0,1,0,6,168,1,1,0,false
0.9.6,15,2,0,0,0,0,0,0,168,1,1,0,false
0.9.6,9,3,0,0,1,2,0,2,185,1,1,1,false
0.9.0,4,3,0,0,0,2,0,0,45,3,11,0,false
0.9.0,3,2,0,0,0,0,1,1,45,2,6,0,false
0.9.6,3,1,0,0,0,1,0,0,185,3,5,0,false
0.9.6,3,1,0,0,0,1,0,2,185,2,3,0,true
0.9.0,6,2,3,0,0,0,0,2,45,2,6,0,false
0.9.6,3,1,0,0,0,1,0,0,94,2,2,0,false
0.9.0,10,7,3,0,0,4,2,0,45,2,6,1,false
0.9.6,3,1,0,0,0,1,0,0,185,2,4,0,false
0.9.6,2,1,0,0,0,0,0,0,168,2,2,0,false
0.9.6,1,1,0,0,0,0,4,0,168,1,1,0,false
0.9.0,3,1,0,0,0,0,0,3,45,2,7,0,false
0.9.0,3,1,0,0,0,0,0,0,37,2,3,0,false
0.9.6,1,1,0,0,0,0,1,0,168,1,2,0,false
0.9.6,3,1,0,0,0,1,1,1,185,3,10,0,false
0.9.6,10,3,2,0,1,1,0,9,185,2,3,3,true
0.9.0,3,1,0,0,0,1,21,1,0,1,5,0,false
0.9.6,3,1,0,0,0,1,0,0,185,1,1,0,false
0.9.0,5,2,1,0,0,2,0,2,37,2,4,1,false
0.9.0,7,2,0,0,0,0,3,0,45,1,4,0,false
0.9.6,3,3,0,0,0,1,1,0,185,4,19,0,true
0.9.0,1,1,0,0,0,0,2,0,45,1,4,0,false
0.9.6,3,1,0,0,0,1,0,0,185,1,1,0,false
0.9.6,4,1,0,0,0,0,0,2,185,3,10,0,false
0.9.0,1,1,0,0,0,0,24,0,45,3,6,0,false
0.9.6,3,1,0,0,0,1,0,0,168,2,2,0,false
0.9.0,5,5,0,1,0,3,4,0,37,2,5,0,false
0.9.6,24,2,1,0,0,1,1,1,185,1,1,56,false
0.9.6,10,3,0,0,1,2,0,7,185,4,14,1,true
0.9.0,3,1,0,0,0,1,0,0,37,2,6,0,false
0.9.0,3,1,0,0,0,1,0,0,45,3,11,0,false
0.9.0,3,2,0,0,0,1,3,0,45,3,13,0,false
0.9.6,3,1,0,0,0,1,0,1,185,2,3,0,true
0.9.6,4,2,1,0,0,0,1,1,168,1,3,0,false
0.9.6,1,1,0,0,0,0,0,0,185,2,5,0,false
0.9.0,3,1,0,0,0,0,0,0,45,2,5,0,false
0.9.6,3,1,0,0,0,1,0,0,185,4,19,0,true
0.9.0,17,14,1,0,1,1,0,11,0,1,5,1,false
0.9.0,3,4,0,0,0,0,10,1,45,3,11,0,false
0.9.0,1,1,0,0,0,0,1,0,45,1,4,0,false
0.9.0,3,1,0,0,0,1,0,0,0,1,4,0,false
0.9.0,3,2,0,0,0,1,3,1,45,2,6,2,false
0.9.6,3,1,1,0,0,0,1,0,168,1,3,0,false
0.9.0,3,1,0,0,0,0,0,0,45,2,5,0,false
0.9.0,3,1,0,0,0,0,0,0,45,2,4,0,false
0.9.6,12,7,4,0,0,4,2,2,185,1,3,3,false
0.9.6,18,13,3,0,0,6,1,2,185,4,19,2,true
0.9.0,3,1,0,0,0,0,0,1,37,2,4,0,false
0.9.6,5,2,3,0,0,0,13,0,185,2,5,0,false
0.9.6,3,1,0,0,0,1,0,0,185,2,3,0,true
0.9.6,1,1,0,0,0,0,0,0,185,2,5,0,false
0.9.6,3,1,0,0,0,1,0,0,185,3,6,0,true
0.9.6,4,2,1,2,0,0,5,0,168,2,7,0,false
0.9.6,3,1,1,0,0,0,0,0,94,2,2,0,false
0.9.6,3,1,0,0,0,1,0,1,185,3,5,0,true
0.9.6,30,11,2,0,1,0,0,7,185,4,19,5,true
0.9.6,3,1,0,0,0,1,0,0,185,1,2,0,false
0.9.0,8,2,0,0,1,0,0,2,45,3,7,1,false
0.9.0,3,1,0,0,0,1,0,0,37,2,4,0,false
0.9.0,3,1,0,0,0,1,0,0,0,1,5,0,false
0.9.0,4,2,0,0,0,0,0,1,37,1,2,0,false
0.9.6,3,1,0,1,0,1,1,0,94,2,2,0,false
0.9.0,3,1,0,0,0,1,1,1,45,3,10,0,false
0.9.0,3,1,0,0,0,1,0,0,0,1,4,0,false
0.9.0,6,2,3,1,0,0,1,4,45,2,6,1,false
0.9.6,3,1,0,0,0,1,0,0,185,1,1,0,false
0.9.6,3,1,0,0,0,1,0,1,168,2,3,0,false
0.9.6,4,2,0,0,0,2,0,0,185,1,1,0,false
0.9.0,3,1,0,0,0,0,0,0,45,3,7,0,false
0.9.0,7,2,2,0,0,2,0,0,37,3,9,1,false
0.9.0,3,1,1,0,0,0,0,0,37,2,2,0,false
0.9.6,4,1,1,0,0,1,0,1,168,1,1,0,false
0.9.0,25,11,13,4,0,3,0,4,37,2,3,2,false
0.9.0,3,1,0,0,0,1,13,2,45,2,6,0,false
0.9.0,3,1,0,0,0,0,0,0,0,1,6,0,false
0.9.0,16,9,6,0,0,1,2,3,37,1,2,3,false
0.9.0,15,6,4,0,0,0,0,3,37,2,3,0,false
0.9.0,3,1,0,0,0,1,1,0,45,3,11,0,false
0.9.6,2,1,0,0,0,0,0,0,168,1,2,0,false
0.9.6,22,2,0,0,0,2,2,1,168,2,7,1,false
0.9.0,6,3,1,0,0,0,1,1,37,1,2,2,false
0.9.0,17,3,3,0,0,0,1,2,37,1,2,6,false
0.9.6,9,3,0,0,1,2,0,2,185,1,1,1,false
0.9.6,3,2,0,0,0,1,1,0,168,2,7,0,false
0.9.0,3,1,0,0,0,1,0,2,45,2,6,0,false
0.9.6,3,1,0,0,0,1,0,0,185,2,3,0,true
0.9.6,3,1,0,0,0,1,0,0,185,2,5,0,false
0.9.6,20,2,0,0,0,0,1,0,168,1,1,0,false
0.9.6,2,1,0,0,0,0,0,0,185,2,5,0,false
0.9.0,4,1,2,0,0,0,0,0,45,1,4,0,false
0.9.6,12,4,1,0,1,2,0,3,185,1,1,0,true
0.9.6,3,1,0,0,0,1,0,0,168,3,5,0,false
0.9.0,3,1,0,0,0,1,71,0,45,3,10,0,false
0.9.0,6,2,2,0,0,1,0,4,0,1,7,0,false
0.9.6,17,4,4,0,0,3,1,10,185,3,9,0,false
0.9.0,3,1,0,0,0,1,0,0,37,2,3,0,false
0.9.6,3,1,0,0,0,1,0,0,185,1,3,0,false
0.9.0,1,1,0,0,0,0,1,0,45,1,4,0,false
0.9.6,3,1,1,0,0,0,0,0,185,2,4,0,false
0.9.0,3,1,0,0,0,1,1,0,45,1,7,0,false
0.9.0,3,1,0,0,0,1,0,0,45,3,7,0,false
0.9.0,23,5,6,0,1,1,0,8,45,3,13,2,false
0.9.0,3,1,0,0,0,1,19,1,45,3,10,0,false
0.9.6,3,1,0,0,0,0,0,0,185,4,14,0,true
0.9.0,4,1,0,0,0,0,0,2,45,3,13,0,false
0.9.0,6,2,3,0,0,1,0,4,37,2,2,2,false
0.9.6,4,1,0,0,0,0,0,5,185,2,3,0,true
0.9.0,4,1,1,0,0,0,2,1,45,3,10,0,false
0.9.0,3,1,0,0,0,0,0,0,45,3,7,0,false
0.9.6,13,8,6,0,0,0,0,0,168,1,1,2,false
0.9.0,4,1,0,0,0,1,0,2,45,2,6,0,false
0.9.0,9,3,0,0,1,1,0,2,45,1,4,1,false
0.9.0,3,1,0,0,0,1,0,0,45,2,6,0,false
0.9.6,3,2,0,0,0,0,0,3,185,2,3,0,true
0.9.0,116,65,28,0,0,1,0,51,45,3,7,16,false
0.9.6,1,1,0,0,0,0,0,0,185,2,5,0,false
0.9.0,6,3,1,0,0,2,1,0,45,1,4,0,false
0.9.0,13,6,0,0,0,3,4,0,0,1,5,0,false
0.9.0,3,1,0,0,0,1,0,0,45,3,11,0,false
0.9.6,3,1,1,0,0,0,0,0,168,1,2,0,false
0.9.0,3,1,0,0,0,1,1,0,45,3,6,1,false
0.9.0,8,2,2,0,0,1,0,3,45,3,13,0,false
0.9.0,10,5,2,0,0,4,0,3,37,1,2,0,false
0.9.0,3,1,1,0,0,0,0,0,45,2,7,0,false
0.9.0,9,3,3,0,0,1,0,0,37,1,2,0,false
0.9.6,2,1,0,0,0,0,0,0,185,2,3,0,true
0.9.6,3,1,0,0,0,1,0,1,168,2,2,0,false
0.9.0,3,1,0,0,0,1,0,0,45,2,4,0,false
0.9.0,5,3,0,0,0,3,0,1,2,1,1,0,false
0.9.0,11,3,2,0,0,0,0,0,45,1,4,0,false
0.9.6,3,1,0,0,0,1,1,2,185,3,9,0,false
0.9.0,3,2,0,0,0,1,1,0,45,2,8,0,false
0.9.0,3,1,0,0,0,0,0,0,0,1,6,0,false
0.9.0,2,1,0,0,0,0,0,0,45,3,11,0,false
0.9.6,27,10,14,11,0,0,1,3,94,2,2,2,false
0.9.6,3,1,0,0,0,1,0,1,168,2,2,0,false
0.9.6,3,3,0,0,0,0,2,0,185,2,3,1,true
0.9.6,27,11,12,0,0,5,1,13,185,3,9,3,false
0.9.6,2,1,0,0,0,0,1,0,185,3,6,0,true
0.9.0,6,2,1,0,0,1,2,0,45,1,4,0,false
0.9.6,5,3,0,0,0,3,0,2,185,2,5,0,false
0.9.6,3,1,1,0,0,0,1,0,185,1,1,0,false
0.9.0,3,1,0,0,0,1,1,0,45,2,4,0,false
0.9.6,3,1,0,0,0,1,4,0,185,2,2,0,false
0.9.6,3,2,0,0,0,1,0,0,94,2,2,0,false
0.9.6,4,1,0,0,0,0,0,2,185,3,10,0,false
0.9.6,1,1,0,0,0,0,0,0,185,2,5,0,false
0.9.0,4,3,1,0,0,2,0,1,0,2,6,0,false
0.9.0,5,2,1,0,0,2,1,3,45,2,8,1,false
0.9.6,45,6,10,0,0,0,1,9,185,2,2,18,false
0.9.0,1,1,0,0,0,0,1,0,45,3,8,0,false
0.9.6,3,1,0,0,0,0,0,0,185,1,1,0,false
0.9.6,4,2,0,0,0,1,31,0,168,2,2,0,false
0.9.0,18,8,5,0,0,2,1,4,37,1,2,9,false
0.9.0,2,1,0,0,0,0,0,0,37,2,3,0,false
0.9.0,3,1,0,0,0,0,0,0,0,1,7,0,false
0.9.0,3,1,0,0,0,1,0,0,37,2,2,0,false
0.9.0,4,2,0,0,0,0,0,1,37,1,2,0,false
0.9.6,3,1,0,0,0,0,0,1,185,4,13,1,true
0.9.6,7,2,1,0,0,2,0,0,185,4,13,0,true
0.9.6,3,1,0,0,0,1,0,0,185,1,1,1,false
0.9.0,6,3,3,0,0,1,1,3,45,4,8,0,false
0.9.0,25,4,17,0,0,0,1,24,45,3,11,3,false
0.9.0,3,1,0,0,0,1,0,0,45,3,13,0,false
0.9.0,4,1,0,0,0,1,0,3,45,2,6,1,false
0.9.0,52,24,24,2,0,11,2,2,45,2,4,4,false
0.9.6,3,1,1,0,0,0,10,0,185,2,2,0,true
0.9.0,17,5,4,0,1,1,2,5,45,2,7,1,false
0.9.0,3,1,0,0,0,1,0,1,45,2,6,0,false
0.9.0,17,6,4,0,0,1,1,1,37,2,3,1,false
0.9.0,4,1,0,0,0,1,0,1,45,2,4,0,false
0.9.6,3,3,0,0,0,1,12,0,185,3,9,0,false
0.9.0,3,1,0,0,0,1,0,0,37,2,3,0,false
0.9.0,4,2,2,0,0,0,2,0,45,3,13,0,false
0.9.6,3,1,0,0,0,1,0,0,168,1,1,0,false
0.9.0,6,3,3,1,0,1,2,0,37,2,3,0,false
0.9.0,9,1,2,0,1,0,0,0,45,2,6,0,false
0.9.0,6,1,2,0,0,0,0,4,37,2,3,0,false
0.9.6,3,1,0,0,0,1,0,1,185,1,3,1,true
0.9.0,3,1,1,0,0,0,3,0,0,2,9,0,false
0.9.0,3,1,1,0,0,0,0,0,0,1,8,0,false
0.9.6,5,4,1,0,0,2,2,1,185,4,14,0,true
0.9.0,3,2,1,0,0,0,2,0,45,3,8,0,false
0.9.0,18,6,10,0,0,2,1,5,37,1,2,0,false
0.9.0,3,1,0,0,0,1,0,0,45,3,11,0,false
0.9.0,3,1,0,0,0,1,0,0,0,1,4,0,false
0.9.0,3,1,0,0,0,0,0,0,45,2,5,0,false
0.9.0,3,1,0,0,0,0,0,0,45,3,7,0,false
0.9.0,3,1,1,0,0,0,0,0,37,1,2,0,false
0.9.6,8,3,0,0,1,1,1,1,0,2,2,0,false
0.9.0,3,1,0,0,0,1,0,0,37,2,3,0,false
0.9.6,3,1,0,0,0,0,0,0,185,2,4,0,false
0.9.0,3,2,0,0,0,0,2,1,0,1,5,0,false
0.9.0,3,1,0,0,0,1,0,0,0,1,6,0,false
0.9.6,3,1,0,0,0,0,0,0,168,3,5,0,false
0.9.0,12,6,6,1,0,2,3,1,45,2,6,1,false
0.9.0,4,3,0,0,0,0,1,1,0,2,9,0,false
0.9.6,5,3,0,0,0,3,5,3,185,4,13,1,true
0.9.6,3,1,0,1,0,1,1,1,168,1,1,0,false
0.9.6,12,7,4,2,0,4,1,3,185,4,13,0,true
0.9.0,3,1,0,0,0,0,0,1,37,2,4,0,false
0.9.0,4,1,1,0,0,1,1,3,45,1,5,1,false
0.9.0,3,1,1,0,0,0,1,0,45,1,7,0,false
0.9.0,3,2,0,0,0,1,4,0,37,2,6,0,false
0.9.0,3,1,0,0,0,1,0,0,45,3,11,0,false
0.9.6,3,2,1,0,0,0,2,1,185,2,8,0,false
0.9.0,3,1,0,0,0,1,1,1,0,1,5,1,false
0.9.0,3,1,0,0,0,1,0,1,45,3,13,0,false
0.9.0,3,2,0,0,0,1,1,0,37,1,2,0,false
0.9.6,5,1,1,0,0,1,0,0,185,3,5,0,true
0.9.0,3,1,0,0,0,1,1,0,37,2,3,0,false
0.9.0,3,1,1,0,0,0,0,0,37,2,6,0,false
0.9.6,25,7,3,2,1,0,1,4,185,4,19,4,true
0.9.6,5,6,1,0,0,1,1,4,185,3,6,4,true
0.9.0,4,1,1,0,0,1,1,0,45,1,4,0,false
0.9.6,3,1,0,0,0,1,0,1,185,1,3,1,true
0.9.0,3,1,0,0,0,1,0,0,37,2,2,0,false
0.9.0,4,2,0,0,0,2,6,2,45,4,8,0,false
0.9.6,3,1,0,0,0,1,0,3,168,2,5,1,false
0.9.0,3,1,0,0,0,1,0,3,37,2,3,0,false
0.9.6,4,2,0,0,0,2,16,2,185,3,9,0,false
0.9.0,3,1,0,0,0,1,7,0,45,3,10,0,false
0.9.0,6,4,2,0,0,3,8,1,45,1,5,1,false
0.9.6,23,1,1,0,0,1,1,1,185,1,1,61,false
0.9.6,3,1,0,0,0,1,0,0,168,1,1,0,false
0.9.0,14,10,5,2,0,1,1,8,37,1,2,3,false
0.9.0,3,1,1,0,0,0,0,0,37,1,2,0,false
0.9.0,3,2,0,0,0,1,6,0,0,1,6,0,false
0.9.0,3,1,0,0,0,0,0,0,0,1,6,0,false
0.9.6,5,1,0,0,0,0,0,0,185,1,2,0,false
0.9.0,2,1,0,0,0,0,0,0,37,2,2,0,false
0.9.6,4,1,2,0,0,0,5,0,185,2,5,0,false
0.9.0,12,10,1,0,0,2,2,8,45,3,13,2,false
0.9.6,3,1,0,0,0,1,0,0,185,1,1,0,false
0.9.6,2,1,0,0,0,0,1,0,185,3,6,0,true
0.9.6,32,8,8,0,1,1,5,15,185,1,1,5,true
0.9.0,4,1,0,0,0,0,0,1,45,4,9,0,false
0.9.6,5,2,3,0,0,0,0,0,94,1,1,1,false
0.9.6,3,1,0,0,0,1,0,0,185,1,1,0,false
0.9.6,3,1,0,0,0,1,0,0,168,3,5,0,false
0.9.6,3,1,0,0,0,1,0,3,185,2,3,0,true
0.9.0,22,8,7,0,1,5,1,0,45,2,10,3,false
0.9.0,3,1,0,0,0,1,0,0,45,3,7,0,false
0.9.6,13,3,0,0,0,0,0,1,168,1,1,0,false
0.9.6,9,4,3,0,0,2,0,0,168,2,5,1,true
0.9.0,3,2,0,0,0,1,1,0,37,2,6,0,false
0.9.6,3,1,0,0,0,1,0,1,168,2,2,1,false
0.9.6,1,1,0,0,0,0,1,0,168,1,1,0,true
0.9.0,4,1,0,0,0,0,0,2,37,3,6,0,false
0.9.0,3,1,0,0,0,1,12,1,45,3,10,0,false
0.9.0,3,1,0,0,0,0,0,0,0,1,4,0,false
0.9.6,19,11,1,0,0,1,1,3,185,2,8,5,false
0.9.6,3,1,0,0,0,1,0,1,185,2,2,0,true
0.9.6,3,1,0,0,0,1,0,1,185,2,3,0,true
0.9.6,10,5,3,0,0,0,2,4,168,2,7,1,false
0.9.6,11,6,5,1,0,2,2,3,94,4,7,0,false
0.9.6,3,1,0,0,0,1,0,0,185,2,5,0,false
0.9.6,56,23,11,0,0,1,0,5,168,2,6,16,false
0.9.6,3,1,0,0,0,1,0,0,185,1,2,0,false
0.9.6,3,1,0,0,0,1,0,1,185,3,10,0,false
0.9.6,12,6,2,0,1,1,0,6,185,4,14,5,true
0.9.6,3,2,0,0,0,0,0,1,94,2,2,0,false
0.9.6,1,1,0,0,0,0,4,0,185,1,2,0,false
0.9.0,3,1,0,0,0,0,0,0,45,3,7,0,false
0.9.0,3,1,0,0,0,1,1,1,37,2,6,0,false
0.9.0,23,18,0,0,0,2,2,1,45,3,7,1,false
0.9.0,3,1,0,0,0,0,0,1,37,2,3,0,false
0.9.0,5,3,2,0,0,1,0,1,0,1,8,0,false
0.9.0,3,2,1,0,0,0,0,1,0,2,6,0,false
0.9.6,1,1,0,0,0,0,0,0,185,2,5,0,false
0.9.6,3,1,0,0,0,1,0,0,168,3,3,0,false
0.9.0,3,1,0,0,0,1,1,0,45,3,11,0,false
0.9.6,10,2,1,0,1,0,0,1,94,1,1,0,false
0.9.0,4,1,0,0,0,0,0,2,45,4,9,0,false
0.9.0,7,5,3,0,0,2,3,1,37,3,9,0,false
0.9.6,3,1,0,0,0,0,0,1,185,2,2,0,true
0.9.6,3,1,0,0,0,1,1,1,168,2,5,0,false
0.9.6,3,2,0,0,0,1,5,0,168,2,7,0,false
0.9.6,31,10,11,2,2,1,1,0,94,2,2,11,false
0.9.0,65,22,20,0,0,2,0,15,37,2,3,1,false
0.9.6,9,2,0,0,1,1,0,4,185,2,2,0,true
0.9.6,26,11,8,0,0,3,1,3,168,2,4,6,false
0.9.0,3,1,1,0,0,0,5,0,45,3,10,0,false
0.9.0,18,4,10,0,0,2,1,2,0,2,5,0,false
0.9.0,3,1,0,0,0,1,4,0,45,3,8,0,false
0.9.0,19,8,7,0,0,1,5,2,0,1,8,2,false
0.9.0,3,1,0,0,0,0,0,0,45,2,5,0,false
0.9.0,3,1,0,0,0,1,0,0,0,1,4,0,false
0.9.6,4,1,0,0,0,0,0,1,185,2,2,0,true
0.9.0,3,1,1,0,0,0,0,0,37,2,3,0,false
0.9.6,3,1,0,0,0,1,0,1,168,1,1,0,false
0.9.0,33,13,14,0,2,1,1,5,45,2,5,2,false
0.9.0,3,1,0,0,0,1,0,0,45,2,4,0,false
0.9.0,3,1,0,0,0,1,0,1,45,2,6,1,false
0.9.0,3,1,0,0,0,1,0,0,45,1,7,0,false
0.9.6,3,1,0,0,0,1,0,0,185,1,1,0,false
0.9.6,3,1,0,0,0,0,0,0,168,3,5,0,false
0.9.6,3,1,0,0,0,1,0,0,168,2,2,0,false
0.9.0,3,1,0,0,0,1,8,1,45,3,13,0,false
0.9.0,3,1,0,0,0,0,0,1,37,2,3,0,false
0.9.6,3,1,0,0,0,0,1,0,185,1,1,0,false
0.9.0,8,4,4,0,0,1,0,1,37,2,2,1,false
0.9.0,1,1,0,0,0,0,0,0,45,3,8,0,false
0.9.0,3,1,1,0,0,0,0,0,45,1,3,0,false
0.9.6,9,6,0,0,1,3,2,1,185,4,13,0,false
0.9.0,25,8,9,2,0,1,1,2,45,2,7,2,false
0.9.0,3,1,0,0,0,1,0,0,45,3,7,0,false
0.9.0,5,2,3,0,0,1,4,0,45,4,8,0,false
0.9.6,3,1,0,0,0,1,0,0,185,2,2,0,true
0.9.0,29,10,6,0,3,1,0,3,37,2,3,0,false
0.9.6,31,10,7,0,3,1,0,4,168,3,6,0,false
0.9.0,3,1,0,0,0,0,0,1,45,3,7,0,false
0.9.0,17,1,0,0,0,1,1,0,45,2,6,1,false
0.9.0,3,1,0,0,0,1,0,0,45,2,6,0,false
0.9.0,3,1,0,0,0,1,0,1,0,1,8,0,false
0.9.0,1,1,0,0,0,0,4,0,45,2,5,0,false
0.9.0,1,1,0,0,0,0,0,0,45,3,8,0,false
0.9.0,4,1,0,0,0,0,0,1,37,2,3,0,false
0.9.0,3,1,1,0,0,0,0,0,37,2,2,0,false
0.9.0,1,1,0,0,0,0,2,0,45,3,6,0,false
0.9.0,3,1,0,0,0,1,0,0,37,1,2,0,false
0.9.0,3,1,0,0,0,1,0,0,0,1,6,0,false
0.9.0,3,1,0,0,0,1,1,0,45,3,11,0,false
0.9.0,55,31,23,4,0,0,1,11,0,1,8,22,false
0.9.6,3,2,0,0,0,1,1,0,168,2,7,0,false
0.9.6,3,1,0,0,0,1,1,0,185,3,6,0,true
0.9.0,3,2,0,0,0,1,13,0,45,1,4,0,false
0.9.6,3,1,0,0,0,0,0,0,185,1,1,0,false
0.9.0,13,4,1,0,1,1,0,3,45,3,7,0,false
0.9.0,1,1,0,0,0,0,0,0,45,3,8,0,false
0.9.6,3,1,1,0,0,0,0,0,185,2,5,0,false
0.9.6,3,2,1,0,0,0,0,0,107,2,2,0,false
0.9.0,4,2,0,1,0,1,0,2,0,1,8,0,false
0.9.6,3,1,0,0,0,0,0,1,94,2,2,0,false
0.9.0,14,4,8,0,0,1,1,2,0,2,12,3,false
0.9.0,3,1,0,0,0,1,0,0,45,2,4,0,false
0.9.6,3,2,0,0,0,1,0,0,168,2,7,0,false
0.9.6,3,1,0,0,0,1,0,1,185,3,10,0,false
0.9.6,18,14,7,0,0,2,0,1,185,1,1,1,false
0.9.6,3,1,0,0,0,0,0,3,185,2,3,0,true
0.9.6,6,1,1,0,0,1,1,3,185,3,6,2,true
0.9.6,16,11,0,0,0,6,0,5,185,2,3,1,true
0.9.0,9,3,2,0,0,2,0,0,37,2,3,0,false
0.9.0,12,1,1,0,1,0,0,6,45,3,13,0,false
0.9.0,3,1,0,0,0,1,0,0,45,2,5,0,false
0.9.6,3,1,0,0,0,1,0,1,168,2,3,0,false
0.9.0,3,1,0,0,0,1,0,0,0,1,4,0,false
0.9.6,3,1,0,0,0,0,0,0,185,2,4,0,false
0.9.6,3,2,0,0,0,0,3,3,185,4,7,0,false
0.9.0,30,7,7,0,4,1,0,1,37,2,6,5,false
0.9.6,5,2,2,0,0,1,8,2,185,4,14,2,true
0.9.6,4,3,1,0,0,1,8,0,168,3,5,1,false
0.9.6,3,1,0,1,0,1,0,2,168,1,1,0,true
0.9.6,5,3,1,0,0,1,0,1,168,1,2,0,false
0.9.0,3,2,1,0,0,0,0,1,37,2,3,0,false
0.9.6,3,1,0,0,0,1,10,0,94,1,1,0,false
0.9.0,11,1,3,0,1,1,0,4,0,1,5,0,false
0.9.0,4,2,0,0,0,1,0,1,0,1,5,0,false
0.9.6,1,1,0,0,0,0,3,0,185,2,2,0,true
0.9.0,3,1,0,0,0,0,1,0,0,1,7,0,false
0.9.6,6,2,3,0,0,0,2,2,168,1,1,3,false
0.9.6,3,1,0,0,0,1,4,0,185,1,2,0,false
0.9.6,3,1,0,0,0,0,0,0,185,1,3,0,true
0.9.0,3,1,0,0,0,1,1,0,45,2,5,0,false
0.9.0,3,1,0,0,0,1,0,0,37,2,2,0,false
0.9.0,2,1,0,0,0,0,1,0,37,2,6,0,false
0.9.0,3,1,0,0,0,0,0,0,45,2,4,0,false
0.9.6,3,2,0,0,0,0,2,0,94,1,1,0,false
0.9.6,3,2,0,0,0,0,11,0,185,1,1,0,true
0.9.6,5,1,3,0,0,0,1,0,168,1,1,0,false
0.9.6,1,1,0,0,0,0,0,0,185,2,2,0,false
0.9.0,20,10,1,0,1,4,2,10,45,3,13,1,false
0.9.0,3,1,0,0,0,0,0,1,37,2,4,0,false
0.9.6,3,1,0,0,0,1,0,0,185,3,5,0,false
0.9.0,3,1,0,0,0,1,9,0,45,3,13,0,false
0.9.0,3,1,1,0,0,0,0,0,45,1,3,0,false
0.9.6,1,1,0,0,0,0,1,0,185,2,4,0,false
0.9.0,3,1,0,0,0,1,0,0,0,1,4,0,false
0.9.6,3,1,0,0,0,0,0,0,185,2,4,0,false
0.9.6,3,1,0,0,0,0,0,1,168,1,1,0,false
0.9.6,4,3,1,0,0,0,5,1,185,4,13,1,true
0.9.6,20,7,9,0,0,0,2,0,168,1,1,8,false
0.9.0,12,8,7,0,0,0,0,4,37,2,2,1,false
0.9.6,1,1,0,0,0,0,0,0,185,2,5,0,false
0.9.0,3,1,0,0,0,0,0,0,45,1,7,0,false
0.9.0,4,1,1,0,0,1,1,3,45,2,4,2,false
0.9.0,7,2,2,0,0,0,0,1,45,1,4,1,false
0.9.6,6,3,1,0,0,2,1,0,185,1,1,0,false
0.9.6,3,1,0,0,0,0,0,1,168,1,1,0,false
0.9.6,3,1,0,0,0,1,0,2,168,2,2,0,false
0.9.6,3,1,0,0,0,1,0,0,185,1,1,0,false
0.9.6,3,1,1,0,0,0,0,0,185,2,2,0,false
0.9.0,3,1,0,0,0,1,0,0,2,1,1,0,false
0.9.6,1,1,0,0,0,0,0,0,185,2,4,0,false
0.9.0,3,1,0,0,0,1,1,1,45,3,5,0,false
0.9.6,3,1,0,0,0,1,0,1,185,2,3,0,true
0.9.0,3,1,1,0,0,0,1,0,45,3,10,0,false
0.9.0,3,1,0,0,0,0,0,0,0,1,8,0,false
0.9.0,3,1,0,0,0,0,0,1,45,2,4,0,false
0.9.6,6,4,1,0,0,0,0,0,94,2,2,0,false
0.9.6,1,1,0,0,0,0,2,0,185,1,1,0,false
0.9.0,3,1,0,0,0,1,1,3,45,3,13,0,false
0.9.0,3,1,0,0,0,1,0,0,37,1,2,0,false
0.9.6,3,1,0,0,0,1,0,0,168,1,1,0,false
0.9.6,4,2,1,0,0,1,0,1,168,2,3,0,false
0.9.6,11,3,0,0,1,0,1,4,185,4,19,0,true
0.9.6,10,1,2,0,0,0,1,0,185,1,1,9,false
0.9.0,3,1,0,0,0,1,0,2,45,3,13,0,false
0.9.6,9,3,0,0,0,2,0,0,168,1,1,0,false
0.9.0,3,1,0,0,0,1,0,1,45,3,5,0,false
0.9.6,9,6,3,0,0,2,1,3,185,4,13,0,true
0.9.0,4,1,0,0,0,0,0,1,0,1,8,0,false
0.9.6,3,1,0,0,0,0,0,0,168,1,1,0,false
0.9.0,3,1,0,0,0,0,0,0,0,1,4,0,false
0.9.0,3,1,0,0,0,1,0,0,0,1,6,0,false
0.9.6,15,4,4,0,1,2,0,10,185,2,2,2,true
0.9.0,3,1,0,0,0,1,0,1,45,3,13,0,false
0.9.6,4,2,0,0,0,2,0,4,168,3,6,0,false
0.9.6,3,2,0,0,0,1,0,0,185,1,2,0,false
0.9.6,3,1,0,0,0,0,0,3,185,2,3,0,true
0.9.6,2,1,0,0,0,0,0,0,185,1,1,0,false
0.9.6,8,3,2,0,0,2,1,1,168,2,4,0,false
0.9.6,15,6,5,1,0,0,2,4,168,1,1,1,false
0.9.6,3,1,0,0,0,1,0,0,168,2,2,0,false
0.9.6,12,5,6,0,0,0,0,2,168,2,2,1,false
0.9.0,12,6,1,0,1,1,0,2,37,3,9,0,false
0.9.0,3,1,0,0,0,1,0,0,0,1,4,0,false
0.9.0,3,1,0,0,0,1,0,1,37,2,3,0,false
0.9.0,13,3,10,1,0,0,2,0,37,1,2,0,false
0.9.0,4,1,0,0,0,0,0,2,37,3,6,0,false
0.9.6,23,26,9,0,0,2,2,2,168,2,5,0,true
0.9.0,1,1,0,0,0,0,1,0,45,1,4,0,false
0.9.6,3,1,0,0,0,1,1,2,168,1,3,0,false
0.9.0,3,1,0,0,0,0,0,0,0,1,4,0,false
0.9.0,1,1,0,0,0,0,0,0,45,3,6,0,false
0.9.0,1,1,0,0,0,0,3,0,45,1,4,0,false
0.9.6,3,1,0,0,0,1,0,0,185,4,19,0,true
0.9.6,3,1,0,0,0,0,0,0,168,3,5,0,false
0.9.0,3,1,0,0,0,1,3,0,45,3,10,0,false
0.9.6,5,3,2,0,0,1,0,1,94,1,1,0,false
0.9.0,2,1,0,0,0,0,1,0,0,1,7,0,false
0.9.6,8,6,1,1,0,1,0,1,168,3,3,0,false
0.9.0,3,1,0,0,0,1,0,1,45,2,7,0,false
0.9.6,4,1,0,0,0,1,0,2,185,2,2,0,true
0.9.0,13,4,6,1,0,0,0,2,37,2,2,2,false
0.9.6,3,1,0,0,0,1,0,0,168,1,1,0,false
0.9.0,3,1,0,0,0,0,0,0,0,1,6,0,false
0.9.0,3,1,0,0,0,1,0,0,45,2,6,0,false
0.9.6,67,28,26,2,1,1,0,17,185,1,3,5,false
0.9.6,17,6,6,0,1,1,2,5,185,1,3,5,false
0.9.6,3,2,0,0,0,1,7,1,185,2,5,0,false
0.9.0,15,2,0,0,0,0,0,0,37,2,3,0,false
0.9.6,13,3,1,0,1,1,0,3,185,2,4,0,false
0.9.0,5,4,0,0,0,3,1,1,45,3,8,0,false
0.9.6,4,2,0,1,0,1,0,0,94,1,1,0,false
0.9.6,9,3,3,0,0,1,0,0,168,1,1,0,false
0.9.0,3,1,0,0,0,1,0,1,37,2,4,0,false
0.9.0,3,1,0,0,0,1,0,1,0,1,5,0,false
0.9.6,27,11,4,0,1,1,1,7,168,2,2,0,false
0.9.6,4,2,0,0,0,2,0,2,168,2,2,0,false
0.9.6,3,1,0,0,0,1,5,0,185,4,19,0,true
0.9.0,8,4,5,0,0,1,3,3,45,1,4,0,false
0.9.0,10,3,2,0,0,0,0,2,0,1,6,3,false
0.9.6,3,1,0,0,0,0,0,0,94,1,1,0,false
0.9.0,5,5,1,0,0,3,1,3,37,2,5,0,false
0.9.6,6,3,3,1,0,1,2,0,168,3,6,0,false
0.9.6,3,1,0,0,0,1,0,0,185,2,2,0,true
0.9.6,1,1,0,0,0,0,0,0,185,2,2,0,false
0.9.0,2,1,0,0,0,0,0,0,45,1,4,0,false
0.9.0,4,1,2,0,0,0,2,0,37,2,3,0,false
0.9.6,4,3,0,0,0,2,1,0,94,2,2,0,false
0.9.0,3,1,0,0,0,1,0,0,37,2,3,0,false
0.9.0,3,1,0,0,0,1,0,0,0,1,4,0,false
0.9.6,3,1,0,0,0,1,0,0,185,2,5,0,false
0.9.0,29,12,8,0,1,2,2,2,37,3,9,2,false
0.9.0,3,1,1,0,0,0,2,0,0,1,8,0,false
0.9.0,3,1,0,0,0,1,0,0,0,2,9,0,false
0.9.0,3,1,0,0,0,0,0,3,45,2,7,0,false
0.9.0,5,3,3,0,0,0,0,0,45,3,11,0,false
0.9.6,8,2,0,0,1,0,0,2,185,2,2,1,true
0.9.6,6,2,1,0,0,2,0,1,107,2,2,0,false
0.9.6,3,1,1,0,0,0,1,0,168,2,7,0,false
0.9.0,9,4,4,0,0,1,0,5,45,1,3,0,false
0.9.0,94,31,3,0,0,0,0,19,37,2,3,3,false
0.9.6,1,1,0,0,0,0,1,0,94,1,1,0,false
0.9.6,1,1,0,0,0,0,1,0,185,1,1,0,false
0.9.6,1,1,0,0,0,0,0,0,185,2,4,0,false
0.9.0,3,1,0,0,0,1,0,0,37,2,3,0,false
0.9.0,3,1,0,0,0,1,4,0,45,1,4,0,false
0.9.0,3,1,0,0,0,1,2,0,0,1,6,0,false
0.9.0,3,1,1,0,0,0,0,0,45,3,7,0,false
0.9.6,6,2,4,0,0,1,0,1,94,2,2,0,false
0.9.0,2,1,0,0,0,0,0,0,45,1,4,0,false
0.9.6,3,1,0,0,0,0,0,0,185,2,4,0,false
0.9.0,3,1,0,0,0,1,0,0,0,1,4,0,false
0.9.0,6,5,0,0,0,1,0,6,45,2,6,0,false
0.9.0,3,1,1,0,0,0,0,0,45,2,5,0,false
0.9.0,3,1,0,0,0,1,0,0,45,1,3,0,false
0.9.6,3,1,0,0,0,1,1,1,185,2,6,0,true
0.9.0,3,3,0,0,0,1,22,2,45,3,10,0,false
0.9.0,4,2,0,0,0,2,1,0,45,1,4,0,false
0.9.6,1,1,0,0,0,0,0,0,185,2,4,0,false
0.9.0,22,4,4,0,1,0,0,13,45,2,6,2,false
0.9.6,7,3,1,0,0,0,1,4,185,3,6,0,true
0.9.6,3,1,0,0,0,0,0,0,185,2,4,0,false
0.9.6,5,2,0,0,0,2,0,1,185,4,19,0,true
0.9.6,1,1,0,0,0,0,0,0,185,2,5,0,false
0.9.6,1,1,0,0,0,0,0,0,185,2,4,0,false
0.9.6,4,2,1,0,0,0,8,0,185,2,2,0,false
0.9.0,1,1,0,0,0,0,0,0,45,3,8,0,false
0.9.6,3,1,0,0,0,1,1,1,168,2,7,1,false
0.9.6,3,1,0,0,0,1,0,1,185,3,10,0,false
0.9.6,3,1,0,0,0,1,0,1,185,4,14,0,true
0.9.6,3,1,1,0,0,0,0,0,185,2,2,0,false
0.9.0,5,2,1,0,0,1,1,1,37,1,2,2,false
0.9.6,4,2,2,0,0,0,0,0,185,3,5,0,false
0.9.0,3,1,0,0,0,1,0,0,45,1,3,0,false
0.9.6,2,1,0,0,0,0,0,0,185,1,1,0,true
0.9.6,3,1,0,0,0,1,0,1,185,1,3,1,true
0.9.6,3,1,0,0,0,1,0,1,185,3,4,0,false
0.9.0,3,1,0,0,0,1,0,0,0,1,4,0,false
0.9.0,2,1,0,0,0,0,1,0,45,2,6,0,false
0.9.6,22,7,4,0,0,0,0,1,168,2,2,6,false
0.9.6,4,1,1,0,0,0,0,2,168,1,1,2,false
0.9.0,1,1,0,0,0,0,2,0,45,3,6,0,false
0.9.6,3,1,0,0,0,0,0,0,185,2,5,0,false
0.9.6,3,1,0,0,0,0,1,1,168,1,1,0,false
0.9.0,5,1,1,0,0,0,0,2,45,3,13,0,false
0.9.0,3,1,0,0,0,1,1,0,45,2,6,0,false
0.9.6,3,1,0,0,0,1,0,0,185,1,1,0,false
0.9.6,4,4,0,0,0,2,0,2,168,3,3,0,false
0.9.0,3,1,0,0,0,1,0,0,45,2,5,0,false
0.9.6,3,1,0,0,0,1,0,1,185,2,2,0,true
0.9.6,3,1,1,0,0,0,0,0,185,4,13,0,true
0.9.0,3,1,0,0,0,1,0,0,37,1,2,0,false
0.9.6,3,1,0,0,0,0,0,2,185,2,5,2,false
0.9.0,3,1,0,0,0,1,0,0,0,1,4,0,false
0.9.0,1,1,0,0,0,0,1,0,45,3,8,0,false
0.9.0,3,1,0,0,0,1,0,1,37,2,4,0,false
0.9.0,4,2,1,0,0,1,8,1,37,2,4,0,false
0.9.6,3,1,0,0,0,1,8,0,185,4,7,0,false
0.9.6,4,1,0,0,0,0,0,1,185,1,2,0,true
0.9.6,11,7,1,2,0,0,0,1,168,3,3,0,false
0.9.0,3,1,0,0,0,0,0,1,45,3,5,0,false
0.9.0,9,2,0,0,1,1,1,2,45,3,7,1,false
0.9.0,7,1,1,0,0,1,3,3,37,2,4,0,false
0.9.0,3,1,0,0,0,0,0,0,0,1,4,0,false
0.9.6,4,2,1,0,0,1,2,2,168,2,7,0,false
0.9.0,1,1,0,0,0,0,5,0,45,3,8,0,false
0.9.0,3,1,0,0,0,1,0,0,45,2,4,0,false
0.9.6,6,2,0,0,0,0,0,0,185,1,1,0,false
0.9.0,3,1,0,0,0,1,0,0,0,1,4,0,false
0.9.0,14,6,2,0,0,2,3,1,45,1,5,2,false
0.9.0,4,1,0,0,0,0,1,1,0,1,8,0,false
0.9.6,3,1,0,0,0,0,0,0,185,2,5,0,false
0.9.0,3,1,0,0,0,1,0,0,2,1,1,0,false
0.9.6,28,10,11,4,0,1,0,3,168,2,2,2,false
0.9.6,3,1,0,0,0,1,0,1,168,2,5,0,false
0.9.0,5,1,2,0,0,0,2,0,45,1,4,1,false
0.9.6,1,1,0,0,0,0,0,0,185,1,1,0,false
0.9.6,3,1,0,0,0,1,1,0,168,1,4,0,false
0.9.6,3,1,0,0,0,1,0,1,185,4,14,0,true
0.9.6,3,2,0,0,0,0,1,1,185,3,3,0,false
0.9.6,3,1,0,0,0,1,0,0,185,3,5,0,false
0.9.0,19,5,5,0,0,0,1,2,45,2,7,1,false
0.9.0,3,1,0,0,0,1,0,0,0,1,5,0,false
0.9.6,18,3,5,0,0,0,1,0,185,1,1,10,false
0.9.6,1,1,0,0,0,0,0,0,185,2,5,0,false
0.9.0,3,1,0,0,0,1,0,1,45,2,10,0,false
0.9.0,28,4,13,2,0,0,1,5,45,2,6,3,false
0.9.0,1,1,0,0,0,0,2,0,45,2,5,0,false
0.9.6,3,1,0,0,0,1,1,1,168,2,3,0,false
0.9.6,5,3,0,0,0,3,0,0,185,2,6,0,true
0.9.0,5,3,1,0,0,2,1,1,45,3,7,0,false
0.9.0,3,1,0,0,0,0,0,0,45,2,5,0,false
0.9.6,15,5,4,0,0,5,4,6,185,2,2,1,true
0.9.0,3,2,0,0,0,1,2,1,0,1,4,0,false
0.9.0,3,1,0,0,0,1,0,2,45,2,7,0,false
0.9.0,3,1,0,0,0,1,0,0,45,3,13,0,false
0.9.6,3,1,0,0,0,1,0,0,70,2,5,0,false
0.9.6,5,1,2,0,0,1,0,2,168,2,2,0,false
0.9.6,1,1,0,0,0,0,0,0,185,2,4,0,false
0.9.0,4,2,1,0,0,0,0,1,0,1,8,0,false
0.9.6,3,1,0,0,0,1,0,0,185,2,5,0,false
0.9.6,3,1,0,0,0,1,0,1,168,3,4,0,false
0.9.6,3,1,0,0,0,0,0,0,185,2,4,0,false
0.9.6,9,3,2,0,0,2,1,2,185,4,13,1,true
0.9.6,3,1,1,0,0,0,0,0,168,1,1,0,false
0.9.0,5,6,1,0,0,1,1,4,45,2,6,4,false
0.9.0,3,1,0,0,0,1,0,1,37,2,4,0,false
0.9.6,8,2,0,0,1,1,0,2,185,2,2,1,true
0.9.0,4,2,1,0,0,0,1,1,0,2,9,0,false
0.9.6,3,1,0,0,0,0,0,1,168,2,2,1,false
0.9.0,9,2,0,0,1,1,1,7,45,2,6,0,false
0.9.6,3,1,0,0,0,1,0,0,185,4,19,0,true
0.9.0,3,1,0,0,0,1,1,2,45,2,4,1,false
0.9.0,4,3,1,0,0,2,0,1,0,2,6,0,false
0.9.0,9,4,2,0,0,0,1,1,37,2,3,0,false
0.9.0,4,4,1,0,0,0,2,1,45,2,6,0,false
0.9.6,18,3,3,0,2,0,0,5,185,4,19,0,true
0.9.0,4,2,1,0,0,0,0,0,37,2,3,0,false
0.9.6,5,3,1,0,0,2,1,1,168,3,5,0,false
0.9.0,54,14,15,2,3,1,4,28,45,2,6,12,false
0.9.0,4,1,0,0,0,0,0,2,45,3,13,0,false
0.9.6,5,4,3,0,0,0,1,5,185,1,2,1,true
0.9.0,3,1,0,0,0,0,0,0,0,1,6,0,false
0.9.6,3,1,0,0,0,1,0,0,185,1,1,0,false
0.9.6,4,1,0,0,0,0,0,1,94,1,1,0,false
0.9.6,5,1,0,0,0,0,0,0,62,1,2,0,false
0.9.0,3,1,0,0,0,1,0,0,37,2,3,0,false
0.9.0,3,1,0,0,0,1,27,0,0,1,5,0,false
0.9.6,3,1,1,0,0,0,0,0,168,2,2,0,false
0.9.0,13,9,6,0,0,1,11,5,45,3,11,1,false
0.9.6,5,2,1,0,0,2,1,2,185,4,13,2,true
0.9.0,17,4,5,0,1,2,0,1,45,2,7,2,false
0.9.0,3,1,1,0,0,0,0,0,37,2,2,0,false
0.9.6,3,1,0,0,0,0,0,1,185,3,10,0,false
0.9.6,1,1,0,0,0,0,0,0,185,2,4,0,false
0.9.6,42,11,13,1,1,5,3,10,185,2,2,7,true
0.9.6,3,1,0,0,0,0,0,0,185,1,1,0,false
0.9.6,3,1,0,0,0,0,0,0,168,3,5,0,false
0.9.0,3,1,0,0,0,1,0,0,37,2,4,0,false
0.9.6,3,1,0,0,0,0,0,0,168,3,5,0,false
0.9.0,5,3,0,0,0,3,16,0,45,3,11,0,false
0.9.0,3,2,0,0,0,1,6,0,45,1,4,0,false
0.9.6,7,2,1,0,0,1,4,2,185,3,5,0,true
0.9.6,7,3,4,0,0,1,2,2,185,2,2,0,false
0.9.6,6,3,2,0,0,2,0,1,168,3,5,2,false
0.9.0,4,2,0,0,0,2,3,4,45,3,8,0,false
0.9.6,1,1,0,0,0,0,0,0,185,2,5,0,false
0.9.6,3,1,0,0,0,1,0,0,185,1,2,0,false
0.9.6,10,4,3,0,0,0,1,1,185,2,5,2,false
0.9.6,7,2,4,0,0,1,5,3,168,2,7,0,false
0.9.0,1,1,0,0,0,0,10,0,45,1,4,0,false
0.9.0,3,1,1,0,0,0,0,0,37,2,2,0,false
0.9.0,1,1,0,0,0,0,1,0,45,2,5,0,false
0.9.6,3,1,0,0,0,1,0,0,185,4,14,0,true
0.9.0,2,1,0,0,0,0,0,0,37,2,2,0,false
0.9.0,7,1,1,0,0,1,1,2,45,1,4,0,false
0.9.6,3,1,1,0,0,0,1,0,185,2,6,0,true
0.9.0,3,1,0,0,0,0,2,1,45,2,6,0,false
0.9.6,3,1,0,0,0,1,0,0,78,2,2,0,false
0.9.6,4,2,0,0,0,2,0,0,168,1,2,0,false
0.9.0,3,1,0,0,0,1,7,0,45,3,8,0,false
0.9.0,3,1,0,0,0,1,0,0,37,2,4,0,false
0.9.0,5,2,0,0,0,0,4,1,37,2,2,0,false
0.9.0,2,1,0,0,0,0,0,0,45,2,7,0,false
0.9.0,10,6,2,0,0,0,0,5,37,1,2,0,false
0.9.6,3,1,0,0,0,0,0,3,185,2,3,0,true
0.9.0,12,3,4,0,0,0,1,11,45,3,13,0,false
0.9.6,5,5,0,0,0,3,2,0,168,2,7,2,false
0.9.0,3,1,0,0,0,0,0,0,45,3,7,0,false
0.9.0,4,1,0,0,0,0,0,2,37,3,6,0,false
0.9.0,3,1,0,0,0,1,0,0,45,1,3,0,false
0.9.6,4,1,0,0,0,0,0,1,94,1,1,0,false
0.9.0,3,1,0,0,0,0,0,0,45,3,7,0,false
0.9.0,4,1,0,0,0,0,0,2,45,3,13,0,false
0.9.0,3,1,0,0,0,1,0,0,0,1,4,0,false
0.9.6,3,1,0,0,0,1,0,0,168,1,1,0,false
0.9.6,3,1,1,0,0,0,0,0,185,2,5,0,false
0.9.0,50,7,13,3,0,1,1,4,45,1,4,20,false
0.9.0,3,1,0,0,0,1,0,0,0,1,4,0,false
0.9.6,3,1,0,0,0,1,0,0,185,2,4,0,false
0.9.0,3,1,0,0,0,0,0,0,0,1,6,0,false
0.9.0,1,1,0,0,0,0,1,0,45,3,8,0,false
0.9.6,3,1,0,0,0,1,0,0,168,2,5,0,true
0.9.6,3,2,0,0,0,0,1,2,83,2,2,0,false
0.9.6,3,1,0,0,0,1,0,1,185,2,2,0,true
0.9.6,3,1,0,0,0,1,0,0,168,2,2,0,false
0.9.6,3,1,0,0,0,1,1,0,70,2,10,0,false
0.9.6,3,1,0,0,0,0,0,1,168,2,2,1,false
0.9.6,3,1,1,0,0,0,0,0,168,1,1,0,false
0.9.6,6,2,1,0,0,2,1,1,185,2,2,0,false
0.9.0,3,1,0,0,0,0,0,0,45,3,7,0,false
0.9.0,25,12,8,0,0,1,1,3,45,1,4,10,false
0.9.0,3,1,0,0,0,1,0,0,0,1,4,0,false
0.9.6,1,1,0,0,0,0,0,0,185,2,4,0,false
0.9.0,5,2,1,0,0,1,18,2,45,2,8,0,false
0.9.6,3,1,0,0,0,1,3,0,168,2,2,0,false
0.9.6,1,1,0,0,0,0,2,0,185,2,2,0,true
0.9.6,13,3,1,0,1,1,0,3,185,2,4,0,false
0.9.0,8,2,0,0,1,1,0,0,0,1,5,0,false
0.9.0,1,1,0,0,0,0,0,0,45,3,8,0,false
0.9.0,5,2,1,1,0,2,0,0,45,1,4,0,false
0.9.0,1,1,0,0,0,0,0,0,45,3,8,0,false
0.9.6,11,11,1,0,0,6,0,2,185,3,5,1,true
0.9.0,3,1,1,0,0,0,0,0,45,1,3,0,false
0.9.0,3,1,0,0,0,1,0,3,45,2,7,0,false
0.9.0,3,1,0,0,0,1,2,0,45,2,8,0,false
0.9.0,3,1,1,0,0,0,0,0,37,2,3,0,false
0.9.6,3,2,0,0,0,1,0,0,168,1,1,1,false
0.9.0,3,1,0,0,0,1,2,0,45,2,5,0,false
0.9.6,3,1,0,0,0,0,0,0,185,1,1,0,false
0.9.6,3,1,1,0,0,0,4,0,185,2,5,0,false
0.9.0,3,1,0,0,0,1,0,1,37,2,3,0,false
0.9.0,8,2,3,0,0,2,0,6,45,2,6,0,false
0.9.0,23,10,8,0,1,2,2,3,0,2,13,3,false
0.9.6,3,2,0,0,0,1,3,1,185,1,1,0,false
0.9.6,3,1,0,0,0,1,0,1,185,2,2,1,true
0.9.0,3,1,0,2,0,1,0,0,37,1,2,0,false
0.9.0,3,1,0,0,0,0,0,1,37,3,6,0,false
0.9.6,3,1,0,0,0,1,0,0,168,2,7,0,false
0.9.6,4,2,0,0,0,1,0,1,185,2,3,0,true
0.9.6,3,1,0,0,0,0,1,0,185,1,3,0,true
0.9.0,8,4,2,0,0,0,0,2,37,2,6,0,false
0.9.6,3,1,0,0,0,1,0,0,168,3,5,0,false
0.9.6,3,1,0,0,0,1,0,1,168,1,1,0,false
0.9.0,3,4,0,0,0,1,4,5,45,2,6,0,false
0.9.0,1,1,0,0,0,0,1,0,45,3,8,0,false
0.9.0,5,1,2,0,0,0,0,2,45,2,7,1,false
0.9.6,3,2,0,0,0,1,2,0,168,1,1,0,false
0.9.6,9,4,3,0,0,2,0,5,185,1,3,1,true
0.9.0,3,1,0,1,0,1,0,1,0,1,7,0,false
0.9.0,4,1,0,0,0,0,0,2,45,3,13,0,false
0.9.6,6,4,2,1,0,3,0,1,168,3,4,0,false
0.9.0,1,1,0,0,0,0,0,0,45,3,8,0,false
0.9.6,1,1,0,0,0,0,0,0,185,2,4,0,false
0.9.6,3,1,0,0,0,1,0,0,185,3,5,0,false
0.9.0,3,1,0,0,0,1,0,1,45,2,7,0,false
0.9.0,3,1,0,0,0,1,2,0,45,1,4,0,false
0.9.0,3,1,0,0,0,1,0,0,45,3,7,0,false
0.9.0,3,2,0,0,0,1,3,1,45,1,4,0,false
0.9.6,2,1,0,0,0,0,0,0,168,1,1,0,false
0.9.0,3,1,0,0,0,1,0,1,45,3,13,0,false
0.9.0,3,2,0,0,0,1,3,0,45,3,10,0,false
0.9.6,1,1,0,0,0,0,2,0,185,1,2,0,false
0.9.6,3,1,0,0,0,0,0,1,168,2,2,1,false
0.9.6,3,1,0,0,0,1,1,0,168,1,4,1,false
0.9.0,3,1,0,0,0,1,0,0,45,1,4,0,false
0.9.6,3,1,1,0,0,0,1,0,94,2,2,0,false
0.9.6,3,2,0,0,0,1,1,0,168,2,7,0,false
0.9.0,3,1,0,0,0,1,0,0,0,1,6,0,false
0.9.6,15,2,2,0,1,1,0,4,94,1,1,0,false
0.9.6,5,2,0,0,0,0,0,0,33,3,5,0,false
0.9.0,3,2,0,0,0,1,16,0,45,3,10,0,false
0.9.0,62,17,18,7,0,0,1,3,45,2,6,12,false
0.9.0,31,22,10,0,0,4,0,5,37,1,2,1,false
0.9.0,10,5,1,0,0,3,0,4,45,3,13,2,false
0.9.0,3,1,0,0,0,1,0,0,0,1,4,0,false
0.9.0,9,5,2,0,0,1,1,3,45,2,5,1,false
0.9.6,5,3,1,0,0,1,0,1,168,2,2,1,false
0.9.0,12,6,8,0,0,1,2,3,45,3,8,0,false
0.9.0,3,1,0,0,0,1,0,0,45,1,4,0,false
0.9.0,3,2,0,0,0,1,0,2,37,2,2,0,false
0.9.6,3,1,0,0,0,1,0,0,168,3,5,0,false
0.9.6,23,10,2,0,1,3,3,8,185,4,19,8,true
0.9.0,32,12,5,0,1,2,1,10,45,3,11,2,false
0.9.6,5,2,2,0,0,1,0,0,168,1,4,1,false
0.9.0,4,2,0,0,0,2,0,2,45,3,11,0,false
0.9.6,6,2,0,0,0,0,1,0,185,2,5,0,false
0.9.6,5,2,2,0,0,1,2,2,185,2,4,0,false
0.9.0,3,1,0,0,0,1,0,1,45,3,6,0,false
0.9.0,3,1,0,0,0,1,0,1,45,2,7,0,false
0.9.0,4,3,0,0,0,2,0,1,45,1,4,0,false
0.9.6,4,4,0,0,0,2,0,0,168,3,6,0,false
0.9.0,3,1,1,0,0,0,0,0,37,2,3,0,false
0.9.0,3,1,0,0,0,1,0,0,0,1,4,0,false
0.9.6,8,1,0,0,1,0,0,1,94,1,1,0,false
0.9.6,4,1,0,0,0,0,0,5,185,2,3,0,true
0.9.6,3,1,0,0,0,0,0,0,185,1,1,0,false
0.9.6,3,1,0,0,0,1,11,1,185,3,9,0,false
0.9.6,1,1,0,0,0,0,2,0,185,1,1,0,false
0.9.6,20,8,2,1,2,1,11,8,185,2,4,8,false
0.9.0,4,2,1,0,0,1,2,0,37,1,2,0,false
0.9.0,13,1,1,0,0,1,1,1,45,2,6,29,false
0.9.0,23,9,3,0,1,2,1,9,45,3,11,5,false
0.9.0,3,1,0,0,0,1,1,0,45,1,4,0,false
0.9.0,21,4,5,0,1,2,1,4,45,2,8,3,false
0.9.6,3,1,0,0,0,1,0,0,185,1,1,0,false
0.9.0,3,2,0,0,0,0,13,0,45,3,7,0,false
0.9.6,3,1,1,0,0,0,2,0,185,4,7,0,false
0.9.0,3,1,0,0,0,1,0,0,45,1,4,0,false
0.9.6,21,7,9,0,0,1,16,4,185,4,13,0,true
0.9.6,3,1,1,0,0,0,3,0,185,4,13,0,true
0.9.6,3,1,1,0,0,0,0,0,185,3,9,0,false
0.9.0,3,1,0,0,0,1,16,0,45,3,11,0,false
0.9.6,4,1,0,0,0,0,0,2,168,3,4,0,false
0.9.6,3,1,0,0,0,0,0,0,185,2,4,0,false
0.9.6,5,2,2,4,0,1,0,0,94,1,2,0,false
0.9.0,3,1,0,0,0,1,0,0,45,2,8,0,false
0.9.0,3,1,0,0,0,0,0,0,45,3,7,0,false
0.9.0,6,4,1,0,0,2,5,0,37,2,3,0,false
0.9.6,3,1,1,0,0,0,0,0,94,2,2,0,false
0.9.6,84,46,28,0,0,0,3,27,168,1,3,0,false
0.9.0,3,1,0,0,0,0,0,0,0,1,5,0,false
0.9.6,3,1,0,0,0,1,0,2,168,3,4,0,false
0.9.0,3,1,0,0,0,0,0,0,37,2,2,0,false
0.9.0,3,1,0,0,0,1,0,0,45,2,6,0,false
0.9.0,2,1,0,0,0,0,0,0,45,2,4,0,false
0.9.0,8,3,3,1,0,2,0,0,45,2,8,0,false
0.9.0,3,2,1,0,0,0,1,0,45,2,4,0,false
0.9.0,5,2,1,1,0,0,0,2,45,2,4,1,false
0.9.0,13,3,1,0,1,1,0,3,45,3,7,0,false
0.9.6,3,1,0,0,0,1,2,0,185,4,16,0,false
0.9.0,34,15,12,1,0,4,0,12,37,2,5,2,false
0.9.0,13,5,7,0,0,0,1,5,37,1,2,2,false
0.9.6,5,1,3,0,0,0,4,0,185,2,2,0,false
0.9.0,3,1,0,0,0,1,0,0,45,3,10,0,false
0.9.6,3,1,0,0,0,0,0,0,185,2,4,0,false
0.9.6,9,5,3,0,0,3,0,6,168,2,5,2,true
0.9.0,2,1,0,0,0,0,1,0,45,2,6,0,false
0.9.6,4,2,0,1,0,1,0,0,94,1,1,0,false
0.9.0,9,2,0,0,1,1,0,2,45,3,7,1,false
0.9.0,87,20,31,1,1,0,1,22,45,4,9,9,false
0.9.0,3,1,0,0,0,1,0,1,45,2,7,0,false
0.9.6,5,1,2,0,0,0,22,0,185,4,14,0,true
0.9.6,24,13,5,0,2,1,1,4,168,2,2,0,false
0.9.0,3,1,0,0,0,1,0,1,37,2,4,0,false
0.9.6,3,1,0,0,0,1,0,0,168,1,1,0,false
0.9.6,3,1,0,0,0,1,0,0,168,3,5,0,false
0.9.6,3,1,0,0,0,1,0,1,185,2,3,0,true
0.9.0,3,1,0,0,0,0,0,0,45,2,5,0,false
0.9.6,5,3,2,0,0,1,0,1,94,1,1,0,false
0.9.6,3,1,1,0,0,0,2,0,168,1,3,0,false
0.9.0,9,2,0,0,1,1,1,2,45,3,7,1,false
0.9.6,4,2,0,0,0,0,1,0,168,1,3,0,false
0.9.6,60,6,9,0,0,0,1,5,185,2,2,21,false
0.9.0,3,1,0,0,0,1,0,0,45,2,4,0,false
0.9.6,3,1,0,0,0,1,0,0,185,4,16,0,false
0.9.0,7,2,1,0,0,1,1,2,45,3,13,0,false
0.9.0,3,1,0,0,0,1,0,1,45,2,7,0,false
0.9.0,3,1,1,0,0,0,0,0,45,3,7,0,false
0.9.0,11,3,0,0,1,1,1,1,45,2,8,0,false
0.9.6,8,2,0,0,1,1,0,2,185,2,2,1,true
0.9.0,3,1,0,0,0,1,0,0,0,1,6,0,false
0.9.6,3,1,0,0,0,1,0,1,185,2,2,0,true
0.9.6,5,2,2,0,0,1,0,0,168,2,2,0,false
0.9.0,20,11,0,0,1,1,79,6,45,3,11,2,false
0.9.0,3,1,0,0,0,1,0,1,45,2,7,0,false
0.9.0,4,2,1,0,0,1,1,1,37,1,2,0,false
0.9.6,3,1,0,0,0,1,1,0,168,2,7,0,false
0.9.0,3,1,0,0,0,1,0,0,0,1,4,0,false
0.9.6,7,3,3,0,0,2,2,3,168,3,4,0,false
0.9.6,3,1,0,0,0,0,0,0,185,2,5,0,false
0.9.0,6,4,3,1,0,1,2,0,45,2,8,0,false
0.9.6,4,3,2,0,0,0,4,2,185,4,13,0,true
0.9.0,3,1,0,0,0,0,0,1,37,2,6,0,false
0.9.6,5,3,0,0,0,3,0,1,185,2,3,0,true
0.9.6,3,1,0,0,0,1,0,0,168,2,2,0,false
0.9.0,3,1,0,0,0,1,0,0,37,2,3,0,false
0.9.0,8,2,1,0,0,1,1,9,45,2,6,5,false
0.9.0,2,1,0,0,0,0,1,0,45,1,4,0,false
0.9.0,4,1,0,0,0,0,0,2,37,3,6,0,false
0.9.6,3,1,1,0,0,0,0,0,185,2,2,0,false
0.9.0,4,1,0,0,0,0,0,5,45,2,7,0,false
0.9.0,3,1,0,0,0,0,0,0,0,1,6,0,false
0.9.0,1,1,0,0,0,0,1,0,37,1,2,0,false
0.9.6,4,5,0,0,0,2,0,0,168,2,3,0,false
0.9.0,1,1,0,0,0,0,1,0,45,2,7,0,false
0.9.0,5,2,0,0,0,1,0,2,45,1,4,0,false
0.9.6,3,1,0,0,0,1,0,0,185,2,4,0,false
0.9.0,4,1,0,0,0,0,0,1,37,2,4,0,false
0.9.6,3,1,0,0,0,1,0,2,168,2,3,0,false
0.9.6,4,2,1,0,0,1,11,3,94,1,1,0,false
0.9.6,3,1,0,0,0,1,0,0,185,2,2,0,false
0.9.0,3,1,0,0,0,1,0,0,0,1,4,0,false
0.9.0,3,1,0,0,0,1,1,0,45,2,6,0,false
0.9.6,3,2,0,0,0,1,3,0,185,3,6,0,true
0.9.6,1,1,0,0,0,0,1,0,185,2,2,0,true
0.9.6,16,3,2,0,1,0,1,8,185,4,14,1,true
0.9.6,3,1,0,0,0,1,0,0,168,1,3,4,false
0.9.6,21,4,5,0,1,2,1,4,185,3,9,3,false
0.9.0,17,5,6,0,0,0,1,6,37,1,2,0,false
0.9.6,3,1,0,0,0,0,0,0,185,2,4,0,false
0.9.6,11,3,2,0,1,0,1,1,185,4,14,0,true
0.9.6,3,2,0,0,0,1,0,0,185,2,4,0,false
0.9.0,11,5,2,0,1,0,1,5,45,3,11,0,false
0.9.0,3,1,0,0,0,1,0,0,37,2,2,0,false
0.9.6,3,2,1,0,0,0,0,0,185,4,13,0,true
0.9.6,6,4,2,0,0,1,0,1,149,2,2,0,false
0.9.0,5,2,1,0,0,2,0,0,45,2,6,0,false
0.9.0,3,1,0,0,0,0,1,0,45,2,7,0,false
0.9.0,3,1,0,0,0,1,0,1,45,3,13,0,false
0.9.0,3,1,0,0,0,0,0,1,37,2,4,0,false
0.9.6,2,1,0,0,0,0,0,0,185,2,3,0,true
0.9.6,13,5,6,0,0,2,2,3,185,4,13,0,true
0.9.0,3,1,0,0,0,1,0,1,45,1,4,0,false
0.9.0,5,1,0,0,0,0,0,2,45,1,4,0,false
0.9.0,3,1,0,0,0,1,0,0,0,1,4,0,false
0.9.0,9,4,0,0,1,0,0,1,45,1,5,0,false
0.9.0,4,3,0,0,0,2,0,2,37,2,6,1,false
0.9.0,4,1,2,0,0,0,0,0,45,3,10,0,false
0.9.0,4,2,1,0,0,1,0,1,45,2,4,1,false
0.9.6,3,1,1,0,0,0,4,0,185,3,6,0,true
0.9.0,4,3,0,0,0,2,0,0,45,1,4,0,false
0.9.0,5,1,2,0,0,1,0,0,45,3,7,0,false
0.9.6,13,3,0,0,2,0,2,2,94,2,2,2,false
0.9.6,3,1,0,0,0,1,0,0,185,3,5,0,false
0.9.0,3,1,0,0,0,0,0,0,0,1,4,0,false
0.9.0,3,1,0,0,0,1,0,0,37,2,3,0,false
0.9.6,3,1,1,0,0,0,3,0,168,1,3,0,false
0.9.6,3,1,0,0,0,0,1,0,185,2,5,0,false
0.9.6,4,1,0,0,0,0,0,2,185,3,10,0,false
0.9.0,9,2,0,0,1,1,1,2,45,3,7,1,false
0.9.6,3,1,0,0,0,1,0,0,168,2,2,0,false
0.9.0,3,1,0,0,0,0,0,1,37,2,3,0,false
0.9.6,4,2,0,0,0,0,0,1,185,1,1,0,false
0.9.6,3,1,0,0,0,1,0,0,78,2,2,0,false
0.9.6,3,1,0,0,0,1,0,2,168,1,2,1,false
0.9.6,3,1,0,0,0,0,0,0,185,2,2,0,true
0.9.0,3,1,0,0,0,1,0,0,37,2,2,0,false
0.9.0,3,1,0,0,0,1,0,0,37,2,4,0,false
0.9.0,4,1,2,0,0,0,0,0,45,3,8,0,false
0.9.0,7,2,2,0,0,1,1,2,37,3,6,0,false
0.9.6,22,13,7,0,0,1,3,7,168,2,7,0,false
0.9.6,20,12,3,0,0,1,8,6,185,2,5,1,false
0.9.0,10,3,1,0,0,3,64,4,45,3,8,4,false
0.9.0,3,1,1,0,0,0,0,0,37,2,4,0,false
0.9.0,11,7,4,0,0,1,4,4,45,3,13,0,false
0.9.0,7,5,3,0,0,2,23,8,37,2,5,0,false
0.9.0,3,1,0,0,0,0,0,0,0,1,5,0,false
0.9.6,8,1,0,0,1,1,0,1,94,1,1,0,false
0.9.6,4,2,0,0,0,1,0,0,94,1,1,0,false
0.9.6,3,1,0,0,0,1,8,0,185,4,14,0,true
0.9.6,21,5,3,0,3,0,1,2,168,1,1,3,false
0.9.6,1,1,0,0,0,0,0,0,185,2,5,0,false
0.9.0,2,1,0,0,0,0,0,0,45,1,4,0,false
0.9.6,3,1,0,0,0,0,0,1,168,2,3,0,false
0.9.6,14,8,3,1,0,2,0,0,168,2,7,0,false
0.9.6,4,2,1,0,0,0,1,3,185,3,9,0,false
0.9.0,3,1,0,0,0,0,0,0,0,1,4,0,false
0.9.6,3,1,0,0,0,1,1,0,185,1,1,0,false
0.9.0,5,1,1,0,0,1,4,1,45,3,8,0,false
0.9.6,3,1,0,0,0,1,2,0,185,2,3,0,true
0.9.0,28,9,15,0,0,1,1,16,37,1,2,1,false
0.9.6,4,2,0,0,0,2,4,0,185,1,1,0,false
0.9.0,3,1,0,1,0,1,9,2,0,2,9,0,false
0.9.6,4,2,0,0,0,1,0,2,185,3,10,0,false
0.9.6,3,1,0,0,0,1,3,1,185,2,3,0,true
0.9.0,2,1,0,0,0,0,0,0,45,2,8,0,false
0.9.6,3,1,0,0,0,0,0,0,185,1,1,0,false
0.9.0,6,4,1,0,0,3,1,0,45,2,4,1,false
0.9.6,26,5,14,2,0,1,1,0,94,4,7,0,false
0.9.6,3,1,0,0,0,1,0,0,168,1,1,0,false
0.9.6,3,1,0,0,0,1,4,0,94,1,1,0,false
0.9.0,3,2,0,0,0,1,3,1,0,1,6,0,false
0.9.6,4,1,0,0,0,0,0,2,185,3,10,0,false
0.9.0,8,2,0,0,1,1,1,2,45,3,7,1,false
0.9.6,3,2,0,0,0,1,0,0,185,4,13,0,true
0.9.6,8,2,0,0,1,2,5,0,94,4,7,0,false
0.9.6,3,4,0,0,0,1,3,1,185,4,19,0,true
0.9.0,9,3,0,0,1,2,0,0,45,1,7,0,false
0.9.6,3,1,0,0,0,1,0,0,185,1,1,0,false
0.9.6,3,1,0,0,0,0,0,0,185,4,14,0,true
0.9.6,5,1,0,0,0,0,0,0,168,2,2,0,false
0.9.0,3,1,0,0,0,0,0,0,0,1,5,0,false
0.9.6,15,10,7,0,0,3,2,0,185,1,1,4,false
0.9.0,16,5,1,0,1,1,4,6,45,3,13,0,false
0.9.0,9,6,0,0,1,3,2,1,45,3,8,0,false
0.9.0,3,1,1,0,0,0,2,0,37,1,2,0,false
0.9.6,6,5,0,0,0,3,6,1,185,4,7,2,false
0.9.0,3,1,0,0,0,1,0,0,0,1,4,0,false
0.9.0,3,1,0,0,0,1,1,0,45,3,10,0,false
0.9.0,39,9,11,0,0,1,1,13,45,2,6,4,false
0.9.0,3,1,0,0,0,0,6,3,45,3,11,0,false
0.9.0,28,11,2,0,1,2,1,15,45,3,11,6,false
0.9.6,4,1,0,0,0,1,0,0,185,1,1,0,false
0.9.0,10,3,0,0,1,0,0,1,37,3,9,0,false
0.9.0,1,1,0,0,0,0,4,0,45,1,4,0,false
0.9.0,3,1,0,0,0,1,0,0,0,1,4,0,false
0.9.6,3,1,0,0,0,1,0,0,185,1,1,0,false
0.9.0,4,1,0,0,0,1,0,0,0,1,8,0,false
0.9.0,6,1,0,0,0,0,1,1,37,2,5,0,false
0.9.0,3,1,0,1,0,1,0,1,0,1,5,0,false
0.9.0,4,1,2,0,0,0,0,0,45,2,5,0,false
0.9.0,3,1,0,0,0,1,0,0,37,2,2,0,false
0.9.0,3,1,0,0,0,1,0,1,45,2,6,1,false
0.9.6,4,2,0,0,0,1,0,0,185,1,2,1,false
0.9.6,3,1,0,0,0,1,1,0,185,1,1,0,false
0.9.0,3,1,0,0,0,1,9,0,45,2,5,0,false
0.9.0,3,1,0,0,0,1,0,0,37,2,2,0,false
0.9.6,3,1,0,0,0,1,0,1,168,3,4,0,false
0.9.6,3,1,0,0,0,1,1,0,185,4,19,0,true
0.9.0,6,4,2,0,0,0,4,1,45,2,6,0,false
0.9.0,3,1,1,0,0,0,2,0,45,3,8,0,false
0.9.6,3,1,0,0,0,1,0,0,168,3,5,0,false
0.9.6,3,1,0,0,0,0,0,0,168,3,5,0,false
0.9.6,12,3,0,0,0,0,0,0,94,1,1,0,false
0.9.6,3,1,0,0,0,1,0,0,185,4,19,0,true
0.9.0,3,1,0,0,0,1,2,1,37,1,2,0,false
0.9.6,3,1,0,0,0,1,0,0,168,1,2,0,false
0.9.0,9,3,0,0,1,2,1,2,45,1,4,1,false
0.9.0,8,4,3,0,0,1,1,2,37,1,2,3,false
0.9.0,3,1,1,0,0,0,0,0,37,2,2,0,false
0.9.6,12,4,3,0,0,3,0,0,168,2,2,0,false
0.9.0,1,1,0,0,0,0,2,0,45,3,6,0,false
0.9.6,3,2,0,0,0,0,38,0,185,4,19,0,true
0.9.6,1,1,0,0,0,0,0,0,185,2,5,0,false
0.9.0,4,2,0,0,0,2,0,2,45,3,11,0,false
0.9.6,1,1,0,0,0,0,1,0,185,2,2,0,true
0.9.6,3,1,0,0,0,1,3,0,185,4,14,0,true
0.9.0,4,1,0,0,0,0,0,2,45,3,13,0,false
0.9.0,27,15,10,0,0,3,3,3,37,2,5,1,false
0.9.6,3,1,0,0,0,1,0,0,168,1,3,0,false
0.9.0,3,1,0,1,0,1,0,0,45,1,7,0,false
0.9.6,1,1,0,0,0,0,2,0,168,1,1,0,false
0.9.6,11,2,2,0,1,0,1,0,33,3,5,0,false
0.9.6,3,1,0,0,0,0,0,0,168,1,1,0,false
0.9.6,3,1,1,0,0,0,3,0,168,1,1,0,false
0.9.6,3,1,0,0,0,0,0,0,185,2,4,0,false
0.9.0,7,5,0,0,0,4,0,3,37,2,5,1,false
0.9.6,4,4,1,0,0,0,2,1,168,2,5,0,true
0.9.0,3,1,0,0,0,1,0,0,45,2,5,0,false
0.9.6,3,2,0,0,0,0,2,0,185,4,19,0,true
0.9.6,3,1,0,0,0,1,1,1,168,1,1,0,false
0.9.6,3,1,0,0,0,0,0,0,185,2,5,0,false
0.9.0,4,1,1,0,0,0,0,1,45,3,11,0,false
0.9.0,3,2,0,0,0,1,0,0,37,3,6,0,false
0.9.6,3,1,0,0,0,1,2,0,70,2,10,0,false
0.9.0,3,1,0,0,0,1,0,0,0,1,4,0,false
0.9.6,3,1,0,0,0,0,0,0,168,3,5,0,false
0.9.6,3,1,0,0,0,1,0,0,185,2,4,0,false
0.9.6,7,3,2,0,0,1,0,0,168,2,2,0,false
0.9.0,3,1,1,0,0,0,1,0,45,2,5,0,false
0.9.6,4,2,0,0,0,1,0,0,168,1,1,0,false
0.9.0,3,1,0,0,0,0,0,4,45,2,7,0,false
0.9.0,3,1,0,0,0,1,0,0,45,3,7,0,false
0.9.0,8,3,4,1,0,1,1,0,37,2,3,0,false
0.9.6,3,1,0,0,0,0,0,0,185,4,14,0,true
0.9.6,4,2,0,0,0,2,0,1,185,1,3,0,true
0.9.6,3,1,0,0,0,1,0,0,185,1,1,0,false
0.9.6,3,1,0,0,0,1,0,0,185,1,1,0,false
0.9.0,3,1,0,0,0,1,0,1,45,2,7,0,false
0.9.0,3,1,0,0,0,1,0,0,45,3,11,0,false
0.9.6,3,1,0,0,0,1,0,0,168,3,5,0,false
0.9.0,3,1,0,0,0,1,1,0,0,1,8,0,false
0.9.0,3,1,0,0,0,1,0,0,0,1,4,0,false
0.9.0,3,1,0,0,0,1,0,0,0,1,4,0,false
0.9.0,10,4,4,0,0,1,0,0,0,1,8,0,false
0.9.6,52,38,1,0,0,12,2,4,168,2,5,3,false
0.9.0,4,2,0,0,0,1,0,2,45,3,13,0,false
0.9.6,6,3,2,0,0,1,1,2,94,1,1,0,false
0.9.0,17,4,4,0,0,3,1,10,45,2,8,0,false
0.9.6,4,1,0,0,0,1,0,0,62,1,2,0,false
0.9.0,3,1,0,0,0,0,0,0,45,3,7,0,false
0.9.6,3,1,0,0,0,1,24,1,185,3,9,2,false
0.9.0,3,1,0,0,0,1,0,0,37,3,9,0,false
0.9.6,3,1,0,0,0,0,0,0,185,2,4,0,false
0.9.0,3,1,0,0,0,1,0,0,37,1,2,0,false
0.9.0,5,3,1,0,0,2,0,1,0,1,6,0,false
0.9.6,3,1,0,0,0,0,0,0,185,2,5,0,false
0.9.0,3,1,0,0,0,1,0,0,45,3,8,0,false
0.9.0,3,1,0,0,0,1,0,0,37,2,3,0,false
0.9.0,3,2,1,0,0,0,0,0,45,3,8,0,false
0.9.6,8,3,2,0,0,2,1,0,168,2,4,2,false
0.9.6,3,1,0,0,0,1,0,0,185,2,4,0,false
0.9.0,3,1,0,0,0,0,0,0,45,3,7,0,false
0.9.6,11,2,2,0,1,1,1,0,168,1,1,0,false
0.9.6,3,1,0,0,0,1,0,0,168,2,2,0,false
0.9.6,4,1,0,0,0,0,0,2,168,3,4,0,false
0.9.0,5,1,2,0,0,0,41,0,45,3,13,0,false
0.9.0,3,1,0,0,0,1,0,2,45,1,5,0,false
0.9.0,4,1,1,0,0,0,3,1,45,3,8,0,false
0.9.0,3,1,1,0,0,0,0,0,45,3,11,0,false
0.9.0,13,12,5,0,0,4,1,4,45,2,8,2,false
0.9.0,1,1,0,0,0,0,4,0,45,2,5,0,false
0.9.6,5,3,1,0,0,1,0,0,168,2,2,0,false
0.9.6,3,1,0,0,0,1,0,0,168,2,2,0,false
0.9.0,3,1,0,0,0,0,0,0,0,1,5,0,false
0.9.0,1,1,0,0,0,0,1,0,45,3,6,0,false
0.9.0,3,1,0,0,0,0,0,0,45,3,7,0,false
0.9.6,9,3,1,0,1,0,0,2,185,4,19,0,true
0.9.6,3,1,0,0,0,1,0,1,185,3,10,0,false
0.9.0,3,1,0,0,0,1,0,0,45,2,7,0,false
0.9.6,4,1,1,0,0,1,0,0,168,2,5,2,true
0.9.6,3,1,0,0,0,0,0,1,168,2,3,0,false
0.9.0,3,1,0,0,0,1,0,0,0,1,4,0,false
0.9.0,10,5,4,1,0,1,0,2,45,2,7,0,false
0.9.6,3,1,0,0,0,1,0,0,185,4,14,0,true
0.9.0,5,1,2,0,0,0,1,0,45,1,4,0,false
0.9.6,4,1,0,0,0,0,0,2,168,2,5,0,true
0.9.0,9,3,2,0,0,2,2,4,45,3,8,1,false
0.9.6,24,10,4,0,1,5,0,15,185,3,4,0,false
0.9.0,4,1,0,0,0,0,0,1,0,1,8,0,false
0.9.0,3,1,0,0,0,0,0,0,45,2,5,0,false
0.9.6,3,1,0,0,0,1,0,0,168,2,5,0,true
0.9.6,3,2,0,0,0,1,0,0,185,2,4,0,false
0.9.6,3,1,0,0,0,0,0,3,185,2,3,0,true
0.9.6,3,1,1,0,0,0,0,0,185,2,4,0,false
0.9.6,3,1,0,0,0,1,0,0,185,4,19,0,true
0.9.6,3,1,0,0,0,1,0,0,185,2,2,0,true
0.9.6,3,2,1,0,0,0,2,1,168,2,3,0,false
0.9.6,3,1,0,0,0,0,0,1,185,2,2,0,true
0.9.0,21,8,4,0,0,1,4,4,37,2,3,8,false
0.9.0,3,1,0,0,0,1,0,0,45,2,6,0,false
0.9.0,7,2,2,0,0,1,0,2,37,2,5,0,false
0.9.0,9,2,1,0,1,0,2,3,45,2,7,0,false
0.9.0,3,1,1,0,0,0,0,0,45,2,4,0,false
0.9.6,3,1,0,0,0,0,0,0,168,3,5,0,false
0.9.6,3,1,0,0,0,1,0,0,185,4,14,0,true
0.9.6,27,19,10,2,0,1,2,7,168,1,1,1,false
0.9.0,1,1,0,0,0,0,2,0,45,2,5,0,false
0.9.0,7,4,2,0,0,1,9,2,45,3,8,1,false
0.9.0,4,2,2,0,0,1,0,1,0,1,7,0,false
0.9.6,17,8,5,0,0,1,2,3,185,1,1,2,false
0.9.0,3,1,0,0,0,1,0,1,37,1,2,0,false
0.9.0,8,4,2,0,0,2,30,1,45,3,8,0,false
0.9.6,1,1,0,0,0,0,1,0,185,1,2,0,false
0.9.0,1,1,0,0,0,0,0,0,45,3,8,0,false
0.9.6,3,1,0,0,0,0,0,0,185,2,4,0,false
0.9.0,14,5,7,3,0,1,0,1,37,1,2,1,false
0.9.6,16,5,3,0,1,0,2,6,185,4,14,2,true
0.9.6,3,1,0,0,0,1,0,0,168,3,3,0,false
0.9.6,3,1,0,0,0,0,0,3,185,2,3,0,true
0.9.6,4,2,1,0,0,1,1,0,185,4,16,0,false
0.9.6,3,1,0,0,0,0,0,0,185,1,1,0,false
0.9.0,3,1,0,0,0,1,0,0,0,1,4,0,false
0.9.6,9,4,1,0,1,0,0,0,168,1,1,2,false
0.9.0,12,3,0,0,0,0,0,1,0,1,8,0,false
0.9.6,3,1,0,0,0,0,0,0,168,3,5,0,false
0.9.0,38,14,13,0,2,1,1,15,45,2,5,9,false
0.9.6,7,4,2,0,0,3,1,3,185,3,6,0,true
0.9.0,3,1,0,0,0,1,0,0,37,2,3,0,false
0.9.6,3,1,0,0,0,1,0,0,185,2,4,0,false
0.9.0,3,1,0,0,0,0,0,1,37,2,4,0,false
0.9.0,3,1,0,0,0,0,0,0,45,3,7,0,false
0.9.6,3,1,0,0,0,0,0,0,185,1,1,0,false
0.9.6,4,4,0,0,0,1,1,0,185,2,2,0,true
0.9.6,3,1,1,0,0,0,0,0,94,2,2,0,false
0.9.0,3,1,0,0,0,1,0,1,45,2,6,0,false
0.9.0,3,2,0,0,0,0,2,1,0,1,4,0,false
0.9.6,3,1,0,0,0,0,0,3,185,2,3,0,true
0.9.0,5,3,0,0,0,3,0,0,45,2,5,0,false
0.9.6,3,1,0,0,0,1,4,0,168,1,1,0,false
0.9.6,3,1,1,0,0,0,1,0,185,2,5,0,false
0.9.6,18,11,7,0,0,1,2,8,185,4,14,0,true
0.9.0,42,26,3,0,0,0,1,9,45,3,10,4,false
0.9.6,3,1,0,0,0,1,0,1,185,3,10,0,false
0.9.6,3,1,0,0,0,0,0,0,168,3,5,0,false
0.9.6,5,4,1,0,0,0,0,1,168,1,2,0,false
0.9.0,4,1,1,0,0,1,0,0,37,2,6,0,false
0.9.6,3,1,0,0,0,1,1,1,94,1,1,0,false
0.9.0,3,1,0,0,0,1,34,1,45,3,13,0,false
0.9.0,3,1,0,0,0,0,0,1,45,2,7,0,false
0.9.0,15,2,3,0,0,2,0,10,45,1,4,2,false
0.9.0,22,16,6,1,0,3,2,13,45,3,10,5,false
0.9.6,3,1,1,0,0,0,0,0,185,2,3,0,true
0.9.0,3,1,0,0,0,0,0,0,45,3,13,0,false
0.9.0,3,1,0,0,0,0,0,0,45,2,5,0,false
0.9.0,3,1,0,0,0,1,0,0,45,3,11,0,false
0.9.0,3,1,0,0,0,1,1,3,45,2,7,0,false
0.9.6,2,1,0,0,0,0,0,0,168,2,2,0,false
0.9.6,4,2,0,0,0,2,6,1,185,1,2,0,false
0.9.0,3,2,0,0,0,1,0,0,0,1,5,1,false
0.9.6,3,1,0,0,0,1,0,0,185,1,1,0,false
0.9.6,3,1,0,0,0,0,0,0,168,3,5,0,false
0.9.6,5,3,1,0,0,0,1,2,185,4,19,0,true
0.9.0,3,1,0,0,0,0,0,0,0,1,6,0,false
0.9.0,5,2,2,0,0,1,9,2,45,3,13,2,false
0.9.0,3,2,0,0,0,1,0,0,0,1,5,1,false
0.9.6,4,2,1,0,0,0,2,0,185,2,4,0,false
0.9.6,3,1,0,0,0,0,0,0,185,2,4,0,false
0.9.6,30,17,8,0,0,3,0,2,185,2,5,2,false
0.9.0,5,4,0,0,0,3,9,2,45,3,10,0,false
0.9.6,3,1,0,0,0,1,0,0,168,2,5,0,false
0.9.6,5,1,1,0,0,1,0,1,185,4,16,0,false
0.9.0,2,1,0,0,0,0,0,0,45,3,6,0,false
0.9.6,3,1,0,0,0,0,0,0,168,3,5,0,false
0.9.6,3,1,0,0,0,0,0,0,185,1,1,0,false
0.9.0,3,1,0,0,0,1,0,0,0,1,5,0,false
0.9.0,29,8,19,4,1,3,0,2,0,2,5,1,false
0.9.0,1,1,0,0,0,0,2,0,45,2,5,0,false
0.9.0,1,1,0,0,0,0,0,0,45,2,5,0,false
0.9.6,3,1,0,0,0,1,0,0,185,4,19,0,true
0.9.6,5,3,3,0,0,0,1,0,168,1,3,0,false
0.9.0,5,3,2,0,0,2,4,0,37,2,5,0,false
0.9.6,4,1,0,0,0,0,0,2,185,3,10,0,false
0.9.0,6,4,3,0,0,1,0,1,0,1,7,0,false
0.9.6,3,1,0,0,0,1,1,0,185,4,7,0,false
0.9.6,3,1,1,0,0,0,0,0,168,3,3,0,false
0.9.6,6,1,4,0,0,0,2,0,185,2,5,0,false
0.9.6,3,1,0,0,0,0,0,0,185,1,1,0,false
0.9.0,9,1,3,0,0,0,0,3,37,2,3,0,false
0.9.0,3,3,0,0,0,0,1,0,37,1,2,0,false
0.9.6,4,1,1,0,0,0,0,1,185,1,1,0,false
0.9.0,3,1,0,0,0,1,0,0,0,1,5,0,false
0.9.0,3,2,0,0,0,1,0,0,2,1,1,0,false
0.9.0,2,1,0,0,0,0,0,0,37,2,3,0,false
0.9.6,1,1,0,0,0,0,1,0,185,3,5,0,false
0.9.0,4,2,1,0,0,0,1,1,37,1,2,0,false
0.9.0,6,2,2,0,0,1,3,2,0,1,6,1,false
0.9.6,9,1,0,0,1,1,0,2,168,2,5,0,true
0.9.6,3,1,0,0,0,0,0,0,185,2,2,0,true
0.9.6,3,1,0,0,0,1,0,0,185,1,2,0,false
0.9.6,4,1,0,0,0,1,0,0,185,1,1,0,false
0.9.0,9,3,0,0,1,2,1,2,45,2,5,1,false
0.9.6,3,1,0,0,0,1,1,0,168,2,5,0,true
0.9.6,3,1,0,0,0,1,0,1,168,2,3,0,false
0.9.0,9,1,1,0,1,0,0,2,0,1,5,0,false
0.9.0,3,1,0,0,0,1,0,0,37,2,2,0,false
0.9.6,3,1,0,0,0,1,0,1,185,3,10,0,false
0.9.6,3,1,0,0,0,0,0,0,185,1,1,0,false
0.9.6,6,2,1,0,0,2,1,3,185,3,6,2,true
0.9.6,7,4,4,0,0,1,1,4,168,1,1,0,false
0.9.0,2,1,0,0,0,0,0,0,37,2,3,0,false
0.9.0,3,1,1,0,0,0,0,0,45,1,4,0,false
0.9.6,3,1,0,0,0,1,1,1,185,3,10,0,false
0.9.6,3,1,0,0,0,1,0,1,185,2,3,0,true
0.9.6,9,2,0,1,0,0,1,0,185,2,6,0,false
0.9.0,3,1,0,0,0,1,1,1,45,3,6,0,false
0.9.0,32,10,2,1,0,0,1,0,45,2,6,39,false
0.9.0,3,1,0,0,0,0,0,0,0,1,6,0,false
0.9.6,3,1,0,0,0,1,2,0,168,1,3,0,false
0.9.6,20,5,6,0,0,1,1,1,168,1,1,1,false
0.9.6,35,26,14,2,0,5,1,1,185,1,1,4,false
0.9.6,13,5,2,0,0,3,2,2,94,1,2,0,false
0.9.0,3,1,0,0,0,1,0,0,0,1,4,0,false
0.9.0,3,1,1,0,0,0,0,0,45,3,7,0,false
0.9.0,3,1,0,0,0,1,0,1,0,1,6,0,false
0.9.0,3,1,1,0,0,0,1,0,45,1,3,0,false
0.9.0,3,1,0,0,0,1,0,0,0,1,4,0,false
0.9.0,3,1,0,0,0,0,0,0,45,3,7,0,false
0.9.0,6,2,2,0,0,0,0,2,0,1,5,0,false
0.9.6,3,1,0,0,0,0,0,0,185,1,1,0,false
0.9.6,3,2,0,0,0,1,1,0,185,4,19,0,true
0.9.6,7,3,1,0,0,0,1,2,185,4,16,0,false
0.9.0,3,1,0,0,0,1,2,0,0,1,7,0,false
0.9.6,3,1,0,0,0,0,0,0,185,2,5,0,false
0.9.6,4,1,1,0,0,0,0,1,185,4,19,0,true
0.9.0,14,9,1,0,0,6,1,0,45,1,4,0,false
0.9.6,3,1,0,0,0,1,0,0,185,2,4,0,false
0.9.0,3,1,0,0,0,0,0,0,0,1,6,0,false
0.9.6,6,3,1,0,0,2,0,5,94,1,1,1,false
0.9.6,4,1,1,1,0,1,2,1,168,3,6,3,false
0.9.6,3,1,0,0,0,1,1,0,168,2,7,0,false
0.9.6,3,1,0,0,0,1,0,1,168,2,2,0,false
0.9.6,20,13,4,0,0,0,1,7,185,4,13,7,true
0.9.0,1,1,0,0,0,0,1,0,37,2,3,0,false
0.9.6,11,4,3,0,0,2,4,2,168,2,6,2,false
0.9.0,3,1,0,0,0,1,0,1,37,2,4,0,false
0.9.6,6,2,0,0,0,0,0,0,185,1,1,0,false
0.9.6,8,3,2,0,0,1,1,4,185,1,1,6,false
0.9.0,1,1,0,0,0,0,0,0,45,3,6,0,false
0.9.0,27,9,12,0,0,2,0,1,45,3,6,0,false
0.9.0,3,1,0,0,0,1,0,0,45,2,6,0,false
0.9.6,8,1,0,0,1,1,0,1,94,1,1,0,false
0.9.6,5,2,1,0,0,0,0,1,168,2,7,1,false
0.9.0,3,2,0,0,0,1,3,0,45,1,4,0,false
0.9.0,1,1,0,0,0,0,5,0,37,2,2,0,false
0.9.0,2,1,0,0,0,0,0,0,45,1,4,0,false
0.9.6,3,1,1,0,0,0,0,0,94,2,2,0,false
0.9.6,1,1,0,0,0,0,0,0,168,1,1,0,false
0.9.6,3,2,0,0,0,1,3,1,185,2,2,0,true
0.9.6,5,2,0,1,0,0,0,2,168,1,1,2,true
0.9.0,3,1,0,0,0,1,2,1,45,2,5,0,false
0.9.6,8,2,3,0,0,0,2,2,185,2,4,0,false
0.9.6,5,3,2,0,0,2,1,1,168,1,3,0,false
0.9.6,10,4,4,0,0,1,19,5,185,4,7,1,false
0.9.6,3,1,0,0,0,1,0,1,168,2,2,0,false
0.9.6,1,1,0,0,0,0,0,0,185,2,5,0,false
0.9.0,3,1,0,0,0,0,0,0,0,1,4,0,false
0.9.6,3,1,0,0,0,1,6,0,185,1,2,0,false
0.9.6,3,1,0,0,0,0,0,0,168,3,5,0,false
0.9.6,6,1,0,0,0,0,0,0,168,2,3,0,false
0.9.6,3,1,0,0,0,1,0,1,168,2,3,0,false
0.9.0,9,6,0,0,1,3,2,1,45,3,8,0,false
0.9.0,1,1,0,0,0,0,1,0,0,1,4,0,false
0.9.0,16,9,3,0,0,1,2,4,45,3,8,3,false
0.9.0,32,7,8,0,1,2,6,12,45,2,6,8,false
0.9.0,3,1,0,0,0,0,0,0,0,1,6,0,false
0.9.6,3,1,0,0,0,1,0,0,185,1,2,0,false
0.9.0,3,1,0,0,0,0,0,0,0,1,4,0,false
0.9.0,3,2,0,0,0,0,0,1,0,2,9,0,false
0.9.0,17,3,7,0,0,1,1,5,37,2,5,1,false
0.9.6,3,1,0,0,0,1,0,0,185,2,4,0,false
0.9.0,3,2,0,0,0,1,1,0,45,2,8,0,false
0.9.0,1,1,0,0,0,0,0,0,45,3,8,0,false
0.9.6,3,1,0,0,0,1,0,0,185,2,2,0,false
0.9.6,7,4,2,0,0,3,0,2,185,2,5,0,false
0.9.6,7,5,1,0,0,3,2,2,168,1,2,0,false
0.9.6,67,25,16,0,3,2,0,19,185,4,19,8,true
0.9.0,22,10,8,0,0,2,0,0,45,2,10,1,false
0.9.0,11,4,0,0,1,0,4,0,45,3,10,2,false
0.9.0,9,4,4,0,0,2,1,0,0,1,7,0,false
0.9.0,3,1,0,0,0,1,0,1,37,2,3,0,false
0.9.0,3,1,0,0,0,0,0,0,45,2,5,0,false
0.9.6,4,2,0,0,0,2,0,2,185,1,3,1,false
0.9.0,12,4,5,0,0,1,1,3,45,4,9,2,false
0.9.6,24,5,0,0,1,0,3,7,185,4,19,0,true
0.9.0,5,7,1,0,0,1,2,0,45,2,4,0,false
0.9.0,4,2,0,0,0,2,2,0,45,2,6,0,false
0.9.6,3,1,0,0,0,1,0,1,168,3,4,0,false
0.9.6,3,1,0,0,0,1,9,0,185,4,16,0,false
0.9.6,3,1,0,0,0,1,1,1,185,3,10,0,false
0.9.0,3,2,0,0,0,1,0,1,37,1,2,0,false
0.9.6,4,1,0,0,0,0,0,2,185,3,10,0,false
0.9.0,3,1,0,0,0,1,0,0,45,3,6,0,false
0.9.6,7,6,1,0,0,1,1,5,185,4,13,4,true
0.9.6,3,1,0,0,0,1,4,0,185,1,1,0,true
0.9.6,15,4,1,0,1,0,0,4,168,1,2,1,false
0.9.0,20,8,7,0,0,0,10,16,45,3,13,4,false
0.9.0,3,1,0,0,0,1,0,0,0,1,4,0,false
0.9.6,3,1,0,0,0,0,0,0,185,2,5,0,false
0.9.0,3,1,0,0,0,0,0,0,45,2,5,0,false
0.9.0,3,1,0,0,0,1,0,0,45,2,6,0,false
0.9.0,3,1,0,0,0,0,0,0,45,2,5,0,false
0.9.6,3,1,1,0,0,0,0,0,185,2,2,0,false
0.9.6,3,1,0,0,0,0,0,0,33,3,5,0,false
0.9.0,3,1,0,0,0,0,2,2,45,3,13,0,false
0.9.0,3,1,0,0,0,1,0,0,37,2,3,0,false
0.9.0,4,2,0,0,0,1,0,0,0,2,7,0,false
0.9.0,3,1,0,0,0,1,4,0,45,3,8,0,false
0.9.0,3,2,0,0,0,1,0,0,45,2,6,0,false
0.9.6,2,1,0,0,0,0,0,0,185,3,9,0,false
0.9.0,3,2,0,0,0,1,0,0,37,1,2,0,false
0.9.6,5,3,1,0,0,0,0,0,168,1,1,1,false
0.9.6,1,1,0,0,0,0,0,0,185,1,1,0,false
0.9.0,16,1,1,0,0,1,1,1,45,2,6,46,false
0.9.0,1,1,0,0,0,0,0,0,45,3,8,0,false
0.9.6,3,1,0,0,0,0,0,0,185,1,1,0,false
0.9.0,3,1,0,0,0,1,0,0,0,1,8,0,false
0.9.0,3,1,0,0,0,1,0,0,0,1,4,0,false
0.9.0,3,1,0,0,0,1,0,0,45,2,5,0,false
0.9.6,4,3,1,0,0,1,2,0,185,4,13,0,true
0.9.0,1,1,0,0,0,0,0,0,45,3,6,0,false
0.9.6,25,8,0,0,0,0,1,8,185,3,6,0,true
0.9.0,3,1,0,0,0,1,1,0,45,2,6,0,false
0.9.0,4,2,0,0,0,2,2,0,0,1,8,0,false
0.9.6,19,11,3,0,0,7,1,2,185,1,1,2,false
0.9.6,3,3,0,0,0,0,10,1,185,2,4,1,false
0.9.6,3,1,1,0,0,0,2,0,185,3,6,0,true
0.9.6,3,1,0,0,0,0,0,0,185,2,5,0,false
0.9.6,4,2,1,0,0,1,7,1,94,1,1,0,false
0.9.0,3,1,0,0,0,1,0,0,45,2,4,0,false
0.9.0,3,1,0,0,0,1,0,0,45,1,3,0,false
0.9.6,12,5,5,0,0,2,3,2,185,4,16,1,false
0.9.0,4,2,0,0,0,2,1,0,37,3,9,0,false
0.9.0,46,16,27,0,0,0,1,4,37,2,6,2,false
0.9.6,3,1,1,0,0,0,0,0,94,1,2,0,false
0.9.6,3,1,0,0,0,1,0,0,185,1,1,0,false
0.9.6,6,5,2,1,0,3,3,2,94,4,7,0,false
0.9.0,3,1,0,0,0,1,0,0,37,2,2,0,false
0.9.0,3,1,0,0,0,1,0,5,45,2,7,0,false
0.9.6,8,2,0,0,1,1,0,2,185,2,2,1,true
0.9.0,3,1,0,0,0,1,2,0,0,1,4,0,false
0.9.0,3,1,1,0,0,0,1,0,45,3,8,0,false
0.9.0,3,1,0,0,0,1,0,0,45,2,5,0,false
0.9.0,3,1,1,0,0,0,0,0,0,1,8,0,false
0.9.6,10,1,6,0,0,0,0,0,168,1,2,0,false
0.9.0,10,4,4,0,0,1,8,4,45,2,6,1,false
0.9.6,5,2,0,0,0,0,4,1,168,1,1,0,false
0.9.6,4,1,0,0,0,0,0,2,185,3,10,0,false
0.9.0,3,1,0,0,0,0,0,0,0,1,4,0,false
0.9.0,6,3,1,0,0,2,2,0,45,2,7,0,false
0.9.0,4,1,1,0,0,1,0,1,37,3,6,0,false
0.9.0,1,1,0,0,0,0,2,0,37,2,2,0,false
0.9.6,3,1,0,0,0,1,0,0,185,4,14,0,true
0.9.6,3,1,0,0,0,1,1,1,185,2,4,0,false
0.9.0,11,2,1,0,0,1,0,13,37,3,6,7,false
0.9.6,3,1,0,0,0,1,0,0,168,1,1,0,false
0.9.6,14,3,4,0,1,2,0,17,185,3,7,0,false
0.9.0,3,1,0,0,0,1,0,0,0,1,4,0,false
0.9.6,3,1,0,0,0,0,0,0,168,3,5,0,false
0.9.6,5,1,1,0,0,0,0,1,168,2,2,0,false
0.9.6,3,1,0,1,0,1,8,0,185,3,9,0,false
0.9.6,2,1,0,0,0,0,0,0,168,3,6,0,false
0.9.6,3,3,0,0,0,1,0,0,185,1,1,0,false
0.9.0,3,2,0,0,0,0,0,1,37,2,3,0,false
0.9.6,3,2,0,0,0,1,7,0,185,2,5,0,false
0.9.6,8,1,0,0,1,1,0,2,185,2,2,0,true
0.9.0,6,3,3,0,0,1,1,0,0,1,6,0,false
0.9.0,11,3,1,0,1,0,0,1,37,2,3,1,false
0.9.6,3,1,0,0,0,1,0,0,185,1,1,0,false
0.9.0,3,1,0,0,0,1,0,0,0,1,7,0,false
0.9.6,3,1,0,0,0,1,0,0,185,1,1,0,false
0.9.0,3,1,0,0,0,1,0,0,45,2,4,0,false
0.9.6,5,3,1,0,0,2,6,1,185,4,13,1,true
0.9.0,4,1,0,0,0,1,0,0,45,2,5,0,false
0.9.6,4,5,0,0,0,2,4,0,168,3,6,0,false
0.9.6,4,1,0,0,0,0,0,2,185,3,10,0,false
0.9.6,10,5,2,0,0,4,0,1,168,1,2,0,false
0.9.0,10,4,4,0,0,1,6,0,45,3,11,1,false
0.9.0,6,4,1,1,0,3,4,0,37,2,3,0,false
0.9.0,15,10,2,0,0,4,0,3,37,1,2,2,false
0.9.0,11,4,2,0,0,1,1,0,37,2,6,0,false
0.9.0,1,1,0,0,0,0,1,0,45,3,8,0,false
0.9.6,3,1,0,0,0,0,0,0,185,2,4,0,false
0.9.6,3,1,0,0,0,1,2,0,185,1,1,0,false
0.9.0,3,1,0,0,0,1,1,2,45,2,7,0,false
0.9.0,3,1,0,0,0,1,0,0,37,1,2,0,false
0.9.0,3,1,0,0,0,0,0,2,0,1,6,0,false
0.9.0,5,1,2,0,0,0,0,0,45,3,8,0,false
0.9.0,1,1,0,0,0,0,0,0,45,3,8,0,false
0.9.6,3,1,0,0,0,1,0,0,185,1,3,0,false
0.9.0,3,1,0,0,0,1,0,0,0,1,4,0,false
0.9.6,4,1,0,0,0,1,0,1,185,1,1,0,false
0.9.6,3,1,0,0,0,0,0,0,168,3,5,0,false
0.9.6,3,1,0,0,0,1,1,0,185,3,9,0,false
0.9.0,4,1,2,0,0,0,4,0,45,3,8,0,false
0.9.0,19,10,7,0,0,1,2,7,37,1,2,2,false
0.9.0,1,1,0,0,0,0,1,0,45,3,8,0,false
0.9.6,3,2,0,0,0,1,2,0,185,1,2,0,false
0.9.0,3,1,0,0,0,0,1,1,45,3,5,0,false
0.9.6,3,1,0,0,0,0,0,0,168,3,5,0,false
0.9.6,17,3,6,0,0,1,0,1,94,1,1,0,false
0.9.6,3,1,0,0,0,0,0,0,185,2,5,0,false
0.9.6,3,1,0,0,0,1,0,0,185,1,2,0,false
0.9.6,3,1,0,0,0,1,1,0,185,2,5,0,false
0.9.0,3,1,0,0,0,1,0,0,45,2,6,0,false
0.9.0,22,2,2,1,0,1,1,3,45,2,6,5,false
0.9.6,11,6,6,0,0,2,4,4,185,3,9,2,false
0.9.0,3,1,0,0,0,1,0,0,37,2,5,0,false
0.9.0,4,1,0,0,0,0,0,1,0,1,8,0,false
0.9.6,15,6,4,0,0,2,4,0,94,4,7,1,false
0.9.0,3,1,0,0,0,0,0,0,45,3,13,0,false
0.9.0,5,1,0,0,0,0,0,0,45,4,8,0,false
0.9.6,3,1,0,0,0,1,2,0,185,2,5,0,false
0.9.0,3,1,0,0,0,0,0,0,45,3,7,0,false
0.9.6,3,1,0,0,0,1,0,0,185,2,3,0,true
0.9.6,5,1,0,0,0,0,0,0,185,1,2,0,false
0.9.6,3,1,0,0,0,1,0,0,168,2,5,0,false
0.9.6,3,1,0,0,0,1,0,1,168,2,2,0,false
0.9.0,9,2,1,0,1,1,0,4,0,1,8,0,false
0.9.6,3,1,0,0,0,1,0,1,185,1,3,0,true
0.9.6,2,1,0,0,0,0,0,0,185,1,1,0,false
0.9.0,29,14,13,0,0,1,4,1,37,2,3,0,false
0.9.6,3,1,0,0,0,1,1,1,185,4,16,0,false
0.9.6,4,2,1,0,0,0,0,0,168,2,3,0,false
0.9.0,3,1,0,0,0,1,0,1,37,3,6,0,false
0.9.0,3,1,0,0,0,1,0,0,45,1,3,0,false
0.9.0,5,3,1,0,0,2,15,3,45,3,10,1,false
0.9.0,3,1,1,0,0,0,1,0,0,1,6,0,false
0.9.6,9,1,0,0,1,0,0,2,185,4,19,0,true
0.9.0,2,1,0,0,0,0,1,0,45,2,6,0,false
0.9.0,3,1,0,0,0,1,1,3,45,1,5,0,false
0.9.0,1,1,0,0,0,0,0,0,45,3,8,0,false
0.9.0,9,1,1,0,1,1,0,3,0,1,5,0,false
0.9.0,3,2,0,0,0,1,0,0,45,3,10,0,false
0.9.6,3,1,0,0,0,0,0,0,94,1,1,0,false
0.9.0,3,1,0,0,0,1,0,1,45,2,7,0,false
0.9.6,13,3,1,0,1,1,0,3,185,2,4,0,false
0.9.0,14,3,1,2,2,2,2,0,45,3,10,2,false
0.9.6,3,1,0,0,0,0,0,0,168,1,1,0,false
0.9.6,3,1,0,0,0,1,0,0,185,4,19,0,true
0.9.0,3,1,0,0,0,1,0,0,0,1,4,0,false
0.9.6,17,5,6,0,0,1,4,1,168,2,7,2,false
0.9.0,3,1,0,0,0,1,0,0,37,1,2,0,false
0.9.6,3,1,0,0,0,0,0,0,185,1,1,0,false
0.9.6,3,2,0,0,0,0,0,1,168,1,1,0,false
0.9.6,4,1,1,0,0,0,0,1,185,4,19,0,true
0.9.6,3,1,0,0,0,0,0,0,185,1,1,0,false
0.9.0,6,1,0,0,0,0,2,0,37,1,2,0,false
0.9.0,12,3,1,0,1,1,1,2,37,3,6,0,false
0.9.0,3,1,1,0,0,0,0,0,37,2,3,0,false
0.9.6,6,1,1,0,0,0,1,1,168,1,1,2,false
0.9.0,3,1,0,0,0,1,0,0,0,1,6,0,false
0.9.6,3,1,1,0,0,0,0,0,185,3,5,0,false
0.9.6,3,1,0,0,0,0,0,0,185,2,5,0,false
0.9.6,8,2,1,0,0,1,1,9,185,3,6,5,true
0.9.6,3,1,0,0,0,1,2,0,168,1,3,0,false
0.9.6,3,1,0,0,0,1,1,0,185,3,9,0,false
0.9.6,4,2,0,0,0,0,1,1,185,1,1,0,false
0.9.6,60,3,6,1,0,1,2,5,185,2,2,25,false
0.9.0,3,1,0,0,0,1,0,0,0,1,5,0,false
0.9.0,3,1,0,0,0,1,4,0,0,1,5,0,false
0.9.0,3,1,0,0,0,1,1,0,45,2,6,0,false
0.9.6,3,1,0,0,0,0,0,0,185,2,4,0,false
0.9.0,6,2,1,0,0,2,1,3,45,2,6,2,false
0.9.0,3,2,0,0,0,1,8,0,37,2,6,0,false
0.9.6,4,1,0,0,0,0,0,1,185,3,10,0,false
0.9.0,4,1,1,0,0,1,0,4,45,2,7,0,false
0.9.6,3,1,0,0,0,0,0,1,168,1,1,0,false
0.9.0,3,4,0,0,0,1,1,1,45,2,6,1,false
0.9.0,14,4,2,0,1,0,0,3,0,1,8,0,false
0.9.6,3,1,0,0,0,0,0,1,185,3,3,0,false
0.9.6,3,1,0,0,0,1,20,1,185,3,9,0,false
0.9.0,1,1,0,0,0,0,3,0,45,3,8,0,false
0.9.6,4,1,0,0,0,0,0,2,185,3,10,0,false
0.9.6,23,8,5,0,0,2,1,1,185,1,1,1,false
0.9.0,16,6,6,0,0,1,2,0,0,1,8,4,false
0.9.0,2,1,0,0,0,0,0,0,37,2,6,0,false
0.9.0,4,1,1,0,0,0,0,2,45,2,6,0,false
0.9.0,3,1,0,0,0,0,0,0,0,1,6,0,false
0.9.0,3,1,0,0,0,1,1,0,0,1,8,0,false
0.9.6,25,12,4,0,0,1,4,8,185,2,4,1,false
0.9.6,4,1,1,0,0,0,0,0,168,1,2,0,false
0.9.6,2,1,0,0,0,0,0,0,185,1,1,0,false
0.9.6,6,3,1,0,0,0,2,1,185,4,19,0,true
0.9.0,22,12,5,0,0,3,2,6,45,3,8,1,false
0.9.6,9,3,0,0,1,2,1,4,185,3,10,1,true
0.9.0,3,1,0,0,0,1,0,1,45,2,7,0,false
0.9.6,1,1,0,0,0,0,3,0,185,2,2,0,true
0.9.0,3,1,0,0,0,1,0,2,37,3,6,0,false
0.9.6,3,1,0,0,0,0,0,1,185,2,4,0,false
0.9.0,3,1,0,0,0,1,0,0,0,1,4,0,false
0.9.0,3,1,0,0,0,0,0,0,0,1,5,0,false
0.9.0,3,1,0,0,0,1,0,1,45,2,7,0,false
0.9.0,3,1,0,0,0,1,8,0,45,1,4,0,false
0.9.0,3,1,0,0,0,1,0,0,0,1,6,0,false
0.9.6,1,1,0,0,0,0,2,0,185,2,2,0,true
0.9.0,4,2,0,1,0,1,0,2,0,1,8,0,false
0.9.6,4,5,0,0,0,2,1,1,168,1,2,1,false
0.9.0,3,1,0,0,0,1,0,0,45,3,13,0,false
0.9.6,13,5,0,0,1,1,0,4,185,4,19,0,true
0.9.6,2,1,0,0,0,0,1,0,94,1,1,0,false
0.9.6,3,1,0,0,0,1,2,0,94,1,1,0,false
0.9.6,3,1,0,0,0,1,0,1,168,2,3,0,false
0.9.0,3,1,0,0,0,1,0,1,37,2,3,0,false
0.9.0,3,2,0,0,0,1,0,0,45,2,5,0,false
0.9.6,3,1,0,0,0,1,0,0,185,2,3,0,false
0.9.0,4,2,0,0,0,0,0,1,37,2,2,0,false
0.9.0,12,5,3,0,1,0,1,1,45,1,5,2,false
0.9.0,6,5,0,0,0,3,3,0,45,3,11,2,false
0.9.0,21,8,6,0,0,1,1,5,45,2,6,1,false
0.9.0,2,1,0,0,0,0,0,0,37,2,3,0,false
0.9.6,8,2,0,0,1,1,0,2,185,2,2,1,true
0.9.6,3,1,0,0,0,1,0,0,94,2,2,0,false
0.9.0,10,3,1,0,1,0,1,1,45,2,9,1,false
0.9.0,3,1,0,0,0,1,0,0,0,1,4,0,false
0.9.0,3,1,0,0,0,1,0,1,37,2,3,1,false
0.9.0,11,6,6,0,0,2,4,6,45,2,8,2,false
0.9.0,3,1,1,0,0,0,0,0,37,2,4,0,false
0.9.0,1,1,0,0,0,0,1,0,0,1,4,0,false
0.9.0,4,1,0,0,0,0,0,1,45,3,13,0,false
0.9.6,3,1,0,0,0,1,0,1,168,2,3,0,false
0.9.0,6,2,0,0,0,0,1,1,45,2,5,0,false
0.9.6,1,1,0,0,0,0,0,0,185,2,5,0,false
0.9.6,3,2,0,0,0,1,1,0,185,3,9,0,false
0.9.0,3,1,0,0,0,1,0,0,45,1,4,0,false
0.9.6,3,1,0,1,0,1,0,0,185,4,19,0,true
0.9.6,3,1,0,0,0,1,0,1,185,3,10,0,false
0.9.0,3,1,0,0,0,1,1,0,45,2,8,0,false
0.9.0,5,5,0,0,0,0,1,4,45,3,10,0,false
0.9.6,4,1,2,0,0,0,1,0,168,2,7,0,false
0.9.6,3,1,0,0,0,0,0,0,185,2,4,0,false
0.9.6,18,6,0,0,1,0,0,4,185,4,19,1,true
0.9.0,6,4,1,0,0,3,0,4,45,2,8,2,false
0.9.0,3,1,0,0,0,0,0,0,0,1,6,0,false
0.9.0,4,2,0,0,0,2,1,0,37,2,3,0,false
0.9.6,5,3,1,0,0,0,1,1,185,3,5,0,true
0.9.0,3,1,0,0,0,1,0,0,45,2,6,0,false
0.9.0,3,1,0,0,0,1,0,3,45,2,7,0,false
0.9.6,18,5,4,0,1,2,3,4,94,2,2,2,false
0.9.6,10,2,1,0,1,1,0,1,185,2,6,2,true
0.9.0,7,6,4,5,0,2,1,0,45,2,8,2,false
0.9.0,3,1,0,0,0,0,0,1,37,2,3,0,false
0.9.6,3,1,0,0,0,0,1,0,185,1,1,0,false
0.9.6,2,1,0,0,0,0,1,0,94,1,1,0,false
0.9.6,1,1,0,0,0,0,2,0,185,2,4,0,false
0.9.0,3,1,0,0,0,1,0,1,45,2,4,0,false
0.9.0,2,1,0,0,0,0,1,0,45,2,6,0,false
0.9.0,3,1,0,0,0,0,0,0,45,2,5,0,false
0.9.0,6,1,1,0,0,1,1,3,45,2,6,2,false
0.9.6,1,1,0,0,0,0,1,0,168,2,2,0,false
0.9.6,8,6,4,0,0,1,2,3,185,4,14,0,true
0.9.0,3,1,0,0,0,1,2,0,45,3,7,0,false
0.9.6,3,1,0,0,0,1,0,0,168,2,2,0,false
0.9.6,3,1,0,0,0,1,0,0,185,2,3,0,true
0.9.0,3,1,0,0,0,0,1,0,37,2,4,0,false
0.9.0,3,1,0,0,0,0,0,1,37,2,4,0,false
0.9.0,3,1,0,0,0,1,0,0,0,1,4,0,false
0.9.6,3,1,1,0,0,0,0,0,185,2,3,0,true
0.9.0,3,1,0,0,0,1,0,1,45,3,13,0,false
0.9.6,3,1,1,0,0,0,1,0,185,1,1,0,false
0.9.6,4,2,0,0,0,1,3,1,185,3,9,0,false
0.9.6,3,1,0,0,0,1,0,0,168,3,5,0,false
0.9.6,1,1,0,0,0,0,0,0,185,2,4,0,false
0.9.6,3,1,0,0,0,1,1,0,168,1,2,0,false
0.9.6,3,1,0,0,0,0,0,1,168,1,1,0,false
0.9.6,9,7,2,0,0,4,3,1,168,2,5,5,false
0.9.6,16,5,7,0,0,1,1,3,185,4,13,1,true
0.9.0,3,1,0,0,0,1,0,0,45,2,4,0,false
0.9.0,3,1,0,0,0,1,4,0,45,3,8,0,false
0.9.6,1,1,0,0,0,0,0,0,185,2,4,0,false
0.9.6,3,1,0,0,0,1,1,0,94,1,1,0,false
0.9.6,3,2,0,0,0,1,2,0,185,2,2,0,false
0.9.0,7,2,3,0,0,0,4,0,45,3,8,0,false
0.9.0,1,1,0,0,0,0,5,0,45,2,5,0,false
0.9.0,5,1,2,0,0,0,0,0,45,4,9,2,false
0.9.6,12,6,5,2,0,2,2,2,94,4,7,2,false
0.9.0,3,1,0,0,0,0,0,1,0,1,4,0,false
0.9.6,3,1,1,0,0,0,1,0,185,3,9,0,false
0.9.0,3,1,0,0,0,0,0,0,45,2,5,0,false
0.9.0,5,3,1,0,0,0,1,3,45,3,11,0,false
0.9.6,3,1,0,0,0,1,0,0,168,2,2,0,false
0.9.6,3,1,0,0,0,1,0,0,185,1,2,0,false
0.9.6,3,1,0,0,0,1,0,0,168,1,1,0,false
0.9.6,7,3,2,0,0,1,4,3,185,4,13,1,true
0.9.0,1,1,0,0,0,0,1,0,37,2,2,0,false
0.9.0,25,8,0,0,0,0,1,8,45,2,6,0,false
0.9.0,3,1,0,0,0,1,0,1,37,2,5,0,false
0.9.6,3,1,0,0,0,1,0,0,168,3,5,0,false
0.9.6,3,1,0,0,0,0,0,1,185,2,2,0,true
0.9.6,7,4,0,0,1,0,1,0,185,1,2,2,false
0.9.6,3,1,1,0,0,0,0,0,94,1,1,0,false
0.9.0,2,1,0,0,0,0,0,0,37,2,3,0,false
0.9.0,3,1,0,0,0,0,0,3,45,2,7,0,false
0.9.6,31,7,11,0,2,2,0,7,0,2,2,4,false
0.9.0,3,1,0,0,0,1,0,1,45,3,13,0,false
0.9.6,4,2,1,0,0,0,0,0,168,2,2,4,false
0.9.0,28,9,7,0,0,3,0,5,37,2,3,0,false
0.9.0,1,1,0,0,0,0,2,0,45,4,8,0,false
0.9.0,5,2,1,0,0,0,3,1,37,2,3,1,false
0.9.0,3,1,0,0,0,1,1,0,45,3,11,0,false
0.9.0,3,1,0,0,0,1,0,0,0,1,4,0,false
0.9.6,3,1,0,0,0,1,0,0,168,1,3,0,false
0.9.0,11,5,3,0,0,1,2,2,45,3,8,0,false
0.9.0,3,1,1,0,0,0,2,0,45,1,4,0,false
0.9.0,3,2,0,0,0,1,2,0,45,3,13,0,false
0.9.0,1,1,0,0,0,0,5,0,37,2,3,0,false
0.9.6,3,1,0,0,0,1,0,1,185,3,10,0,false
0.9.0,8,3,2,0,0,0,1,5,45,2,8,0,false
0.9.0,3,1,0,0,0,0,1,2,45,3,13,0,false
0.9.0,9,4,2,0,0,2,1,0,37,1,2,0,false
0.9.0,4,3,1,0,0,2,1,0,0,2,5,0,false
0.9.6,3,1,1,0,0,0,0,0,185,2,5,0,false
0.9.6,3,1,0,0,0,1,0,0,185,1,1,0,false
0.9.0,3,2,0,0,0,1,27,1,0,1,5,0,false
0.9.6,3,1,0,0,0,1,4,0,185,2,2,0,false
0.9.0,7,2,3,0,0,0,1,3,37,1,2,2,false
0.9.0,3,1,0,0,0,0,1,0,45,2,6,1,false
0.9.6,3,1,1,0,0,0,2,0,185,2,2,0,false
0.9.6,3,1,0,0,0,0,0,1,185,2,3,0,true
0.9.0,3,1,0,0,0,1,0,0,37,3,6,0,false
0.9.6,3,1,0,0,0,1,0,0,168,3,3,0,false
0.9.0,3,1,1,0,0,0,0,0,45,2,5,0,false
0.9.0,3,2,0,0,0,0,2,0,45,3,11,0,false
0.9.6,6,3,1,0,0,0,13,0,168,2,7,0,false
0.9.6,3,1,0,0,0,0,0,0,185,2,4,0,false
0.9.0,3,1,0,0,0,0,0,1,37,2,5,0,false
0.9.6,3,1,0,0,0,0,0,1,168,1,1,0,false
0.9.0,3,1,0,0,0,1,0,1,0,2,9,0,false
0.9.6,3,1,0,0,0,1,0,0,185,2,2,0,true
0.9.6,3,1,1,0,0,0,2,0,185,4,7,0,false
0.9.0,3,1,0,0,0,0,1,1,45,3,5,0,false
0.9.6,3,1,0,0,0,0,0,0,185,1,1,0,false
0.9.6,3,1,0,0,0,1,0,0,94,1,1,0,false
0.9.6,3,1,1,0,0,0,0,0,168,3,3,0,false
0.9.0,3,1,0,0,0,1,0,0,45,3,11,0,false
0.9.6,3,1,0,0,0,0,0,0,185,1,1,0,false
0.9.6,1,1,0,0,0,0,0,0,185,2,5,0,false
0.9.0,3,1,1,0,0,0,1,0,37,2,3,0,false
0.9.0,3,1,0,0,0,1,0,0,45,1,4,0,false
0.9.0,5,2,2,0,0,1,0,0,37,2,3,1,false
0.9.6,7,2,1,0,0,1,0,0,185,3,5,0,true
0.9.6,1,1,0,0,0,0,2,0,185,2,4,0,false
0.9.0,3,1,1,0,0,0,0,0,37,2,2,0,false
0.9.6,4,2,1,0,0,0,1,0,94,2,2,0,false
0.9.6,7,10,0,0,0,0,0,2,168,3,6,0,false
0.9.0,5,3,2,2,0,2,1,1,45,3,8,0,false
0.9.6,8,2,0,0,1,0,0,2,185,2,2,1,true
0.9.0,5,1,0,0,0,0,1,1,37,2,4,0,false
0.9.6,3,5,0,0,0,1,1,0,168,2,7,0,false
0.9.6,1,1,0,0,0,0,0,0,185,2,5,0,false
0.9.6,4,2,0,2,0,2,4,0,168,2,2,0,false
0.9.0,1,1,0,0,0,0,0,0,45,3,8,0,false
0.9.0,5,2,0,0,0,2,0,3,45,3,11,0,false
0.9.6,9,3,4,0,0,0,0,0,185,1,1,0,false
0.9.6,3,1,0,0,0,1,0,0,168,1,1,0,false
0.9.6,3,1,0,0,0,1,0,0,185,2,5,0,false
0.9.6,3,1,0,0,0,1,0,0,168,1,1,0,false
0.9.0,1,1,0,0,0,0,0,0,45,3,8,0,false
0.9.0,13,7,5,0,0,2,0,0,37,2,2,0,false
0.9.6,3,2,0,1,0,1,0,0,168,1,1,0,false
0.9.0,17,6,3,0,1,2,1,4,45,3,8,1,false
0.9.6,4,1,1,0,0,1,2,0,168,2,7,0,false
0.9.6,3,1,0,0,0,1,0,0,168,2,7,0,false
0.9.6,42,12,18,1,0,2,2,0,168,1,1,2,false
0.9.0,16,10,6,0,0,4,1,1,45,3,11,1,false
0.9.6,3,1,0,0,0,1,0,0,185,1,1,0,false
0.9.0,3,1,0,0,0,1,2,0,0,1,5,0,false
0.9.6,2,1,0,0,0,0,1,0,33,3,5,0,false
0.9.6,1,1,0,0,0,0,0,0,185,2,5,0,false
0.9.6,1,1,0,0,0,0,2,0,185,2,2,0,true
0.9.0,12,2,6,0,0,0,1,1,37,2,4,0,false
0.9.0,6,2,0,0,0,0,0,3,37,2,3,0,false
0.9.0,7,2,2,0,0,2,0,3,37,2,2,0,false
0.9.0,3,1,0,0,0,0,0,0,0,1,6,0,false
0.9.6,1,1,0,0,0,0,0,0,185,2,4,0,false
0.9.6,11,5,1,0,0,3,0,1,185,4,16,0,false
0.9.6,4,5,1,0,0,2,1,2,185,2,2,0,true
0.9.0,11,4,4,0,0,1,0,2,0,2,6,1,false
0.9.0,3,1,0,0,0,1,0,2,45,2,7,0,false
0.9.6,3,1,0,0,0,1,2,0,94,1,1,0,false
0.9.0,3,1,0,0,0,1,2,1,37,2,4,0,false
0.9.6,6,4,0,0,0,4,1,0,168,1,1,0,false
0.9.6,3,1,0,0,0,0,0,0,185,2,4,0,false
0.9.6,8,2,0,0,1,2,0,0,168,1,1,0,false
0.9.6,5,1,0,0,0,0,0,0,185,2,2,0,false
0.9.6,3,1,0,0,0,0,0,0,33,3,5,0,false
0.9.0,3,3,0,0,0,0,10,4,45,3,13,1,false
0.9.6,5,2,1,0,0,2,1,0,185,4,16,0,false
0.9.0,3,1,0,0,0,1,0,0,45,2,4,0,false
0.9.0,3,1,0,0,0,1,0,1,45,2,7,0,false
0.9.0,3,1,0,0,0,1,0,0,45,3,13,0,false
0.9.6,3,1,0,0,0,1,0,0,185,1,2,0,false
0.9.0,3,1,0,0,0,0,0,1,45,2,7,0,false
0.9.0,4,1,1,0,0,0,0,0,37,2,6,0,false
0.9.0,9,2,1,0,1,1,0,0,37,3,9,1,false
0.9.0,2,1,0,0,0,0,0,0,37,1,2,0,false
0.9.6,4,1,0,0,0,0,0,2,168,3,4,0,false
0.9.0,3,1,0,0,0,1,1,0,45,2,6,0,false
0.9.6,3,1,0,0,0,1,0,0,185,2,3,0,true
0.9.6,3,1,0,0,0,0,0,0,185,4,14,0,true
0.9.6,1,1,0,0,0,0,0,0,185,2,5,0,false
0.9.0,3,1,0,0,0,1,0,0,0,1,4,0,false
0.9.0,1,1,0,0,0,0,0,0,45,3,6,0,false
0.9.0,5,1,3,0,0,0,2,0,45,3,10,0,false
0.9.0,3,1,0,0,0,1,0,0,45,2,6,0,false
0.9.6,3,1,0,0,0,1,0,1,168,3,5,0,false
0.9.6,1,1,0,0,0,0,0,0,185,2,2,0,false
0.9.0,3,1,0,0,0,0,0,0,0,1,6,0,false
0.9.0,3,1,0,0,0,0,0,0,0,1,5,0,false
0.9.6,4,1,0,0,0,0,0,2,168,3,4,0,false
0.9.0,3,2,0,0,0,0,38,1,45,3,11,0,false
0.9.0,3,1,0,0,0,1,0,1,37,3,6,0,false
0.9.6,3,1,0,0,0,1,1,0,185,1,2,0,false
0.9.0,3,1,0,0,0,1,2,0,45,3,11,0,false
0.9.6,1,1,0,0,0,0,1,0,185,2,4,0,false
0.9.6,4,1,1,0,0,1,0,4,185,2,3,0,true
0.9.6,3,1,0,0,0,1,0,0,185,4,19,0,true
0.9.0,3,1,0,0,0,1,0,0,45,1,4,0,false
0.9.0,19,8,3,0,0,1,0,1,37,2,6,0,false
0.9.0,11,5,4,0,0,0,2,5,45,3,13,0,false
0.9.6,6,3,2,0,0,2,4,2,185,1,1,3,false
0.9.6,28,4,13,2,0,0,0,5,185,1,1,3,false
0.9.6,3,2,1,0,0,0,1,0,185,2,5,0,false
0.9.0,3,1,0,0,0,0,0,0,0,2,9,0,false
0.9.0,3,3,0,0,0,1,0,1,0,1,7,0,false
0.9.6,3,1,0,0,0,1,0,0,185,2,4,0,false
0.9.0,3,1,1,0,0,0,0,0,37,2,2,0,false
0.9.6,7,2,3,0,0,0,2,0,185,4,13,0,true
0.9.0,3,1,0,0,0,0,0,0,45,2,5,0,false
0.9.0,10,2,1,1,1,1,1,2,37,2,4,1,false
0.9.0,3,1,1,0,0,0,0,0,37,2,2,0,false
0.9.6,3,1,0,0,0,1,0,1,168,2,2,0,false
0.9.0,4,2,0,0,0,1,0,2,0,1,8,0,false
0.9.6,3,3,0,0,0,0,1,0,168,2,2,0,false
0.9.6,4,4,0,0,0,0,8,0,94,1,1,0,false
0.9.0,3,1,0,0,0,1,0,0,37,3,6,0,false
0.9.0,3,1,0,0,0,1,0,1,0,1,7,0,false
0.9.6,3,1,0,0,0,1,0,1,168,2,3,0,false
0.9.0,3,1,0,0,0,1,0,0,0,1,4,0,false
0.9.6,3,1,0,0,0,1,0,0,168,3,3,0,false
0.9.6,3,1,0,0,0,1,4,1,185,4,14,1,true
0.9.6,3,1,0,0,0,1,0,0,185,1,1,0,false
0.9.0,3,2,0,0,0,1,0,2,37,2,2,0,false
0.9.0,11,3,2,0,0,1,2,0,37,2,3,0,false
0.9.6,3,1,0,0,0,1,0,1,168,2,3,0,false
0.9.6,5,5,1,0,0,0,2,4,185,4,19,0,true
0.9.6,3,1,0,0,0,1,4,1,185,4,13,0,true
0.9.0,3,1,0,0,0,1,0,0,37,2,3,0,false
0.9.6,4,2,0,1,0,0,0,0,94,1,1,0,false
0.9.0,3,1,0,0,0,0,0,0,0,1,5,0,false
0.9.0,3,1,0,0,0,1,0,1,37,3,6,0,false
0.9.6,8,2,0,0,1,1,0,2,185,2,2,1,true
0.9.6,3,1,0,0,0,1,0,1,168,2,2,0,false
0.9.6,3,2,0,0,0,1,0,0,185,1,1,1,false
0.9.6,3,1,0,0,0,0,0,0,185,2,5,0,false
0.9.6,15,11,3,0,0,6,0,7,168,2,2,1,false
0.9.6,6,3,2,0,0,2,0,1,94,1,1,0,false
0.9.0,3,1,1,0,0,0,1,0,45,3,10,0,false
0.9.0,3,1,0,0,0,1,0,0,37,2,3,0,false
0.9.6,3,1,0,0,0,0,0,0,185,4,19,0,true
0.9.0,4,2,1,0,0,0,6,1,37,2,3,2,false
0.9.0,3,1,1,0,0,0,1,0,45,3,10,0,false
0.9.6,3,1,0,0,0,1,0,0,185,4,19,0,true
0.9.0,3,1,0,0,0,1,1,1,37,2,4,0,false
0.9.6,8,2,0,0,1,1,0,2,185,2,2,1,true
0.9.0,3,1,0,0,0,1,0,3,45,2,7,0,false
0.9.0,3,1,0,0,0,1,0,0,37,3,6,0,false
0.9.0,4,4,0,0,0,0,8,0,0,1,8,0,false
0.9.0,3,1,1,0,0,0,0,0,37,1,2,0,false
0.9.6,3,1,0,0,0,1,0,0,185,1,1,0,false
0.9.0,4,2,0,0,0,1,0,0,45,3,13,0,false
0.9.0,1,1,0,0,0,0,3,0,45,1,4,0,false
0.9.0,5,4,0,0,0,0,0,0,45,2,6,0,false
0.9.6,3,2,1,0,0,0,0,0,185,2,2,0,false
0.9.6,6,3,1,0,0,3,0,1,168,1,1,0,false
0.9.6,11,3,2,0,0,0,1,3,168,1,1,1,false
0.9.6,3,1,0,0,0,1,0,1,185,4,19,0,true
0.9.0,3,1,0,0,0,0,0,0,0,1,8,0,false
0.9.6,67,29,26,2,0,3,0,0,185,1,1,4,false
0.9.0,4,1,0,0,0,0,1,1,37,2,4,0,false
0.9.6,48,23,13,0,0,11,3,10,185,2,2,15,true
0.9.0,3,1,1,0,0,0,0,0,37,2,4,0,false
0.9.0,3,1,1,0,0,0,0,0,45,1,3,0,false
0.9.6,6,2,2,0,0,0,4,6,185,3,6,0,true
0.9.0,3,1,0,0,0,0,5,1,45,3,10,0,false
0.9.0,3,1,1,0,0,0,0,0,45,2,7,0,false
0.9.6,22,4,4,0,1,0,0,8,185,1,1,2,true
0.9.0,1,1,0,0,0,0,3,0,45,2,5,0,false
0.9.6,1,1,0,0,0,0,3,0,185,2,2,0,true
0.9.6,3,1,0,0,0,1,0,0,185,1,1,0,false
0.9.6,3,1,0,0,0,1,0,0,168,1,1,0,false
0.9.6,3,1,0,0,0,0,3,0,185,2,5,0,false
0.9.0,3,1,0,0,0,1,0,0,2,1,1,0,false
0.9.6,3,1,0,0,0,1,0,2,185,2,2,0,false
0.9.6,3,1,1,0,0,0,0,0,94,2,2,0,false
0.9.0,3,1,0,0,0,1,0,0,0,1,4,0,false
0.9.6,3,1,0,0,0,0,0,1,168,2,2,1,false
0.9.6,12,1,1,0,0,1,1,3,185,2,3,2,true
0.9.6,3,1,0,0,0,1,0,0,185,1,3,0,false
0.9.0,3,1,0,0,0,1,0,1,45,3,7,0,false
0.9.6,11,5,3,0,0,3,1,1,168,2,5,1,false
0.9.6,1,1,0,0,0,0,1,0,168,1,2,0,false
0.9.6,3,1,0,0,0,1,0,0,168,3,5,0,false
0.9.0,3,1,0,0,0,1,0,0,0,1,4,0,false
0.9.6,3,1,1,0,0,0,0,0,185,1,1,0,false
0.9.0,7,4,2,0,0,3,1,3,45,2,6,0,false
0.9.0,3,1,1,0,0,0,1,0,37,2,2,0,false
0.9.6,1,1,0,0,0,0,0,0,185,1,2,0,false
0.9.6,3,1,0,0,0,1,0,0,185,2,2,0,false
0.9.0,8,2,0,0,1,1,0,2,45,3,7,1,false
0.9.6,15,7,3,4,0,3,1,0,94,1,1,0,false
0.9.0,1,1,0,0,0,0,0,0,45,3,8,0,false
0.9.0,3,1,0,0,0,1,0,0,45,3,7,0,false
0.9.6,4,2,0,0,0,1,3,1,185,2,5,0,false
0.9.6,3,1,1,0,0,0,1,0,168,1,1,0,false
0.9.0,17,7,3,0,0,0,2,2,37,2,3,5,false
0.9.0,3,1,0,0,0,1,0,0,45,2,5,0,false
0.9.6,7,1,1,0,0,1,1,0,185,1,1,0,true
0.9.6,4,1,2,0,0,0,0,0,168,1,1,1,false
0.9.6,3,1,0,0,0,1,0,0,168,1,2,0,false
0.9.6,14,2,2,0,2,1,0,3,168,2,2,1,false
0.9.6,3,1,0,0,0,1,0,0,185,4,7,0,false
0.9.6,3,1,0,0,0,1,11,0,185,3,4,0,false
0.9.6,4,1,1,0,0,1,2,0,185,1,1,1,false
0.9.0,3,1,0,0,0,1,5,0,45,3,10,0,false
0.9.0,1,1,0,0,0,0,1,0,45,3,6,0,false
0.9.0,3,1,0,1,0,1,8,0,45,2,8,0,false
0.9.6,3,1,0,0,0,1,0,2,185,2,2,0,true
0.9.0,3,1,0,0,0,0,1,1,45,3,5,0,false
0.9.6,2,1,0,0,0,0,1,0,185,1,1,0,false
0.9.0,5,1,1,0,0,1,4,2,45,3,8,0,false
0.9.0,3,1,0,0,0,1,0,0,0,1,4,0,false
0.9.0,14,3,2,1,1,1,0,8,0,1,8,0,false
0.9.0,40,19,9,0,0,3,0,47,45,2,6,5,false
0.9.0,9,3,2,0,0,0,0,4,37,2,5,0,false
0.9.6,3,2,1,0,0,0,0,0,185,2,2,0,true
0.9.0,3,1,0,0,0,1,2,0,0,1,5,0,false
0.9.6,7,3,2,0,0,0,0,1,168,2,2,2,false
0.9.0,3,1,0,0,0,1,0,0,37,2,4,0,false
0.9.6,3,1,0,0,0,0,0,0,185,1,1,0,false
0.9.6,3,1,0,0,0,1,31,0,185,3,9,0,false
0.9.0,3,1,0,0,0,0,0,0,0,1,5,0,false
0.9.0,3,1,0,0,0,1,0,0,0,1,4,0,false
0.9.6,3,1,0,0,0,0,0,1,168,1,1,0,false
0.9.0,4,2,0,0,0,2,0,0,45,4,8,0,false
0.9.0,8,1,0,0,1,0,0,4,0,1,8,0,false
0.9.0,3,1,0,0,0,0,0,0,0,2,6,0,false
0.9.0,5,2,1,0,0,2,3,1,45,2,8,0,false
0.9.0,6,2,2,0,0,0,0,4,0,1,7,0,false
0.9.0,3,1,0,0,0,1,6,0,45,3,8,0,false
0.9.0,3,1,0,0,0,0,0,0,0,1,5,0,false
0.9.6,5,1,3,0,0,0,1,0,185,1,2,0,false
0.9.6,3,1,0,0,0,1,0,0,185,1,1,0,false
0.9.6,5,2,2,0,0,1,1,4,185,3,9,1,false
0.9.0,5,4,1,0,0,2,0,0,37,1,2,0,false
0.9.6,13,3,1,0,1,1,0,3,185,2,4,0,false
0.9.0,14,10,2,0,0,2,1,4,45,3,11,4,false
0.9.0,4,2,0,0,0,2,0,0,45,1,4,0,false
0.9.6,3,1,0,0,0,1,6,0,185,4,19,0,true
0.9.6,1,1,0,0,0,0,0,0,185,2,5,0,false
0.9.0,10,4,4,0,0,2,0,0,45,1,4,0,false
0.9.6,1,1,0,0,0,0,2,0,185,2,4,0,false
0.9.6,8,4,2,0,0,1,2,0,94,3,4,0,false
0.9.6,16,5,2,0,1,1,0,7,185,4,19,5,true
0.9.0,7,3,3,0,0,0,0,2,37,2,3,0,false
0.9.0,25,12,4,0,0,1,0,7,45,1,7,1,false
0.9.0,3,1,0,0,0,1,0,0,37,1,2,1,false
0.9.0,3,1,0,0,0,1,0,0,45,2,4,0,false
0.9.6,15,2,3,0,0,2,0,10,185,1,1,2,false
0.9.6,15,8,3,0,0,1,4,13,185,4,13,2,true
0.9.6,10,4,4,0,0,1,0,0,94,1,2,0,false
0.9.0,3,1,0,0,0,0,2,0,0,1,7,0,false
0.9.0,13,4,0,0,0,0,1,0,37,1,2,0,false
0.9.6,3,1,0,0,0,1,0,0,185,2,3,0,true
0.9.0,3,1,0,0,0,1,1,0,45,1,4,0,false
0.9.6,25,9,8,0,0,1,0,5,168,3,5,0,false
0.9.0,17,4,1,0,0,0,0,2,37,2,3,0,false
0.9.0,3,1,0,0,0,0,0,0,45,3,7,0,false
0.9.6,3,1,0,0,0,0,0,0,168,1,1,1,false
0.9.0,3,1,0,0,0,1,0,1,45,3,13,0,false
0.9.0,13,4,5,0,0,1,0,4,45,2,7,0,false
0.9.0,3,1,0,0,0,1,0,0,0,1,4,0,false
0.9.6,8,6,1,0,0,1,2,0,185,1,3,1,false
0.9.0,3,1,0,0,0,0,0,0,0,1,6,0,false
0.9.0,3,1,0,0,0,1,0,1,45,3,13,0,false
0.9.0,1,1,0,0,0,0,0,0,45,3,6,0,false
0.9.6,3,1,0,0,0,1,1,0,185,1,1,0,false
0.9.6,3,1,0,0,0,1,0,0,185,2,5,0,false
0.9.6,9,6,2,0,0,4,2,8,168,2,7,2,false
0.9.0,3,1,0,0,0,1,0,1,45,3,13,0,false
0.9.0,3,1,1,0,0,0,0,0,45,3,7,0,false
0.9.0,3,1,0,0,0,1,0,1,45,3,5,0,false
0.9.6,6,4,2,0,0,1,1,4,185,4,13,2,true
0.9.0,3,1,1,0,0,0,1,0,37,1,2,0,false
0.9.6,3,1,0,0,0,1,0,1,185,3,10,0,false
0.9.0,52,13,18,0,0,1,2,6,0,1,5,3,false
0.9.6,3,2,0,0,0,1,1,0,185,4,19,0,true
0.9.6,3,1,0,0,0,1,0,0,185,2,2,0,false
0.9.0,2,1,0,0,0,0,0,0,0,1,5,0,false
0.9.0,3,1,0,0,0,1,0,0,45,2,6,0,false
0.9.6,3,1,0,0,0,0,0,0,168,3,5,0,false
0.9.6,3,1,0,0,0,0,0,0,168,3,5,0,false
0.9.6,3,1,0,0,0,0,0,1,168,2,2,0,false
0.9.6,4,1,1,0,0,0,0,0,185,2,2,0,true
0.9.0,3,1,0,0,0,1,0,0,37,2,3,0,false
0.9.0,3,1,0,0,0,0,0,0,45,3,7,0,false
0.9.0,3,1,0,0,0,1,0,1,45,2,6,1,false
0.9.6,3,1,0,0,0,0,0,0,168,3,5,0,false
0.9.6,3,1,0,0,0,1,0,0,168,1,2,0,false
0.9.6,3,1,0,0,0,1,0,0,168,3,5,0,false
0.9.6,2,1,0,0,0,0,0,0,168,1,1,0,false
0.9.6,8,2,0,0,1,1,0,2,185,2,2,1,true
0.9.0,5,4,1,0,0,1,0,1,0,1,5,0,false
0.9.6,3,1,0,0,0,0,0,0,185,2,4,0,false
0.9.6,3,1,0,0,0,0,1,1,185,4,14,0,true
0.9.6,1,1,0,0,0,0,0,0,185,2,4,0,false
0.9.0,2,1,0,0,0,0,14,0,0,1,4,0,false
0.9.0,3,1,1,0,0,0,2,0,37,1,2,0,false
0.9.0,33,10,11,0,1,3,0,6,45,2,6,0,false
0.9.6,15,1,0,0,0,1,0,1,185,4,19,1,true
0.9.6,3,2,0,0,0,0,0,1,168,1,1,0,false
0.9.6,3,1,0,0,0,0,0,0,168,3,5,0,false
0.9.6,11,4,2,0,0,1,1,0,168,2,7,0,false
0.9.0,3,1,0,0,0,0,0,0,45,2,5,0,false
0.9.6,10,2,0,0,1,0,0,3,185,1,1,0,true
0.9.0,3,1,0,0,0,1,1,1,45,3,5,0,false
0.9.6,3,1,0,0,0,0,0,0,168,3,5,0,false
0.9.0,3,2,0,0,0,1,0,0,45,3,8,0,false
0.9.6,1,1,0,0,0,0,0,0,168,1,1,0,false
0.9.6,3,1,0,0,0,1,0,1,185,3,10,0,false
0.9.6,13,6,6,0,0,1,6,3,168,2,2,0,false
0.9.6,9,3,0,0,1,1,0,2,185,1,1,1,false
0.9.6,4,2,1,0,0,0,1,1,168,1,3,0,false
0.9.0,3,1,0,0,0,1,10,1,0,1,8,0,false
0.9.0,14,1,2,0,0,0,1,1,45,4,8,12,false
0.9.0,3,1,0,0,0,1,0,1,45,2,7,0,false
0.9.6,3,1,0,0,0,0,0,0,185,2,4,0,false
0.9.0,9,3,6,0,0,1,1,2,45,2,6,0,false
0.9.0,2,1,0,0,0,0,0,0,45,2,4,0,false
0.9.0,3,1,0,0,0,0,0,0,45,2,8,0,false
0.9.6,2,1,0,0,0,0,0,0,168,3,3,0,false
0.9.0,6,3,1,0,0,2,1,2,37,2,3,0,false
0.9.0,11,2,3,0,1,0,0,6,45,2,6,0,false
0.9.6,9,3,0,0,1,2,0,0,185,2,4,0,false
0.9.0,4,2,0,0,0,1,3,1,45,2,8,0,false
0.9.0,1,1,0,0,0,0,1,0,45,3,8,0,false
0.9.0,3,1,1,0,0,0,0,0,37,2,3,0,false
0.9.0,3,1,0,0,0,0,0,1,37,2,4,0,false
0.9.6,3,1,0,0,0,0,0,0,185,2,5,0,false
0.9.0,11,4,2,1,0,2,1,1,0,1,5,0,false
0.9.6,4,2,1,0,0,1,0,0,185,1,1,0,false
0.9.0,18,9,7,0,0,1,6,10,37,2,3,4,false
0.9.6,7,6,2,0,0,1,3,2,185,2,5,0,false
0.9.0,3,1,0,0,0,0,0,0,0,1,6,0,false
0.9.0,3,1,0,0,0,1,0,0,37,1,2,0,false
0.9.6,4,2,1,0,0,0,0,0,168,2,2,0,false
0.9.6,1,1,0,0,0,0,2,0,185,1,2,0,false
0.9.6,3,1,0,0,0,0,0,0,168,3,5,0,false
0.9.6,16,10,9,0,0,2,0,1,168,1,1,3,false
0.9.6,3,1,0,0,0,1,0,1,168,2,2,0,false
0.9.0,4,1,1,0,0,1,0,0,37,2,4,1,false
0.9.6,4,1,0,0,0,0,0,2,185,3,10,0,false
0.9.0,3,1,0,0,0,1,0,0,2,1,1,0,false
0.9.6,5,3,1,0,0,2,3,1,185,2,5,0,false
0.9.0,16,5,0,0,1,2,1,6,45,3,11,0,false
0.9.6,29,10,6,0,3,1,0,4,168,3,6,0,false
0.9.0,3,1,0,0,0,0,0,0,45,3,7,0,false
0.9.0,7,3,1,0,0,3,0,4,45,3,11,0,false
0.9.6,3,1,0,0,0,1,1,0,168,2,7,0,false
0.9.0,5,2,0,0,0,1,0,2,45,1,4,0,false
0.9.0,2,1,0,0,0,0,0,0,37,2,3,0,false
0.9.0,2,1,0,0,0,0,0,0,37,2,3,0,false
0.9.0,3,3,0,0,0,0,1,2,45,3,8,0,false
0.9.0,2,1,0,0,0,0,0,0,0,1,5,0,false
0.9.6,6,3,1,0,0,2,2,0,185,2,2,0,true
0.9.6,6,2,3,0,0,0,2,0,185,4,7,1,false
0.9.6,3,1,0,0,0,1,0,1,168,3,5,0,false
0.9.0,3,2,0,0,0,0,0,1,45,3,13,0,false
0.9.0,3,1,0,0,0,0,0,1,37,2,3,0,false
0.9.6,7,2,2,0,0,1,1,3,168,3,4,0,false
0.9.6,4,1,1,0,0,0,0,0,168,1,1,0,false
0.9.6,3,1,0,0,0,1,16,1,185,2,2,0,true
0.9.6,3,1,0,0,0,1,0,0,185,1,1,0,false
0.9.0,3,1,0,0,0,1,0,0,37,2,6,0,false
0.9.6,3,1,0,0,0,1,0,0,168,1,1,0,false
0.9.6,5,3,3,0,0,0,1,0,185,4,13,0,true
0.9.0,1,1,0,0,0,0,0,0,45,3,6,0,false
0.9.0,5,3,0,0,0,3,2,0,45,2,6,0,false
0.9.6,9,6,3,0,0,3,0,0,168,1,2,0,false
0.9.0,6,1,0,0,0,0,0,4,37,2,3,0,false
0.9.6,7,3,2,0,0,0,0,1,185,2,3,0,true
0.9.0,1,1,0,0,0,0,0,0,45,3,6,0,false
0.9.0,8,1,0,0,1,1,0,4,0,1,8,0,false
0.9.0,3,1,0,0,0,1,0,0,0,1,4,0,false
0.9.0,3,1,0,0,0,1,0,0,37,1,2,0,false
0.9.0,3,1,1,0,0,0,0,0,45,2,6,0,false
0.9.6,3,1,0,0,0,1,0,0,168,3,5,0,false
0.9.6,8,4,2,0,0,4,3,0,168,3,5,1,false
0.9.6,4,1,0,0,0,0,0,1,94,1,1,0,false
0.9.6,3,1,0,0,0,1,0,0,168,3,5,0,false
0.9.0,10,7,8,0,0,2,10,1,45,2,8,2,false
0.9.0,3,1,0,0,0,0,0,0,0,1,6,0,false
0.9.6,3,1,0,0,0,1,0,1,185,3,10,0,false
0.9.6,3,2,0,0,0,1,3,0,185,1,2,0,false
0.9.0,3,1,0,0,0,1,0,1,37,2,4,0,false
0.9.6,20,9,7,0,0,3,0,9,168,3,6,7,false
0.9.0,6,3,3,0,0,0,0,4,37,2,5,0,false
0.9.6,4,2,1,0,0,0,0,0,168,2,3,0,false
0.9.0,3,1,0,0,0,1,0,0,0,1,5,0,false
0.9.0,1,1,0,0,0,0,0,0,45,3,8,0,false
0.9.0,8,2,0,0,1,1,1,2,45,3,7,1,false
0.9.6,3,1,0,0,0,1,2,1,168,2,2,0,false
0.9.0,4,3,0,0,0,2,0,0,45,3,11,0,false
0.9.6,10,6,3,0,0,1,0,4,185,2,3,3,true
0.9.6,49,25,29,0,0,1,0,13,168,1,2,3,false
0.9.0,4,2,0,0,0,0,0,0,37,2,6,0,false
0.9.6,1,1,0,0,0,0,2,0,168,1,1,0,false
0.9.6,3,1,0,0,0,1,1,0,168,2,7,0,false
0.9.0,9,5,6,0,0,0,0,1,0,1,5,2,false
0.9.0,4,1,0,0,0,0,0,2,45,3,13,0,false
0.9.6,1,1,0,0,0,0,0,0,185,2,4,0,false
0.9.6,6,1,1,0,0,1,1,3,168,1,1,0,false
0.9.0,3,1,0,0,0,1,2,0,37,2,4,0,false
0.9.6,3,1,0,0,0,0,0,0,185,2,4,0,false
0.9.6,8,1,2,0,0,1,1,1,185,1,1,3,false
0.9.6,3,1,0,0,0,1,0,0,185,2,5,0,false
0.9.6,4,3,0,0,0,1,2,2,185,2,3,0,true
0.9.6,4,3,0,0,0,2,0,0,185,4,19,0,true
0.9.6,1,1,0,0,0,0,4,0,185,1,2,0,false
0.9.0,3,1,0,0,0,1,0,1,45,2,10,0,false
0.9.6,1,1,0,0,0,0,2,0,168,1,1,0,false
0.9.0,9,1,0,0,1,1,0,2,37,3,9,0,false
0.9.6,3,1,0,0,0,1,0,1,185,2,2,0,true
0.9.0,4,2,0,0,0,2,2,1,45,2,5,0,false
0.9.6,3,1,0,0,0,1,0,0,83,2,2,0,false
0.9.6,4,1,0,0,0,0,0,1,94,1,1,0,false
0.9.0,3,1,0,0,0,0,0,0,45,2,5,0,false
0.9.0,3,1,0,0,0,1,0,0,37,2,6,0,false
0.9.6,15,5,3,0,1,0,1,5,185,4,19,0,true
0.9.6,3,1,0,0,0,0,0,0,185,2,5,0,false
0.9.0,3,1,0,0,0,0,0,0,0,1,6,0,false
0.9.0,11,6,3,0,0,0,1,5,45,3,11,0,false
0.9.0,8,4,2,0,0,3,4,1,45,1,5,0,false
0.9.0,2,1,0,0,0,0,1,0,37,3,9,0,false
0.9.6,3,1,0,0,0,1,0,0,78,2,2,0,false
0.9.6,10,2,2,0,1,1,0,9,185,2,3,4,true
0.9.6,3,1,0,0,0,0,0,3,185,2,3,0,true
0.9.0,3,2,0,0,0,0,2,1,0,1,6,0,false
0.9.0,3,1,0,0,0,1,0,1,37,2,2,0,false
0.9.0,3,1,0,0,0,1,5,0,37,2,3,0,false
0.9.0,9,2,0,0,1,1,1,5,45,2,6,0,false
0.9.0,11,2,1,0,1,1,4,4,45,2,6,0,false
0.9.0,3,1,0,0,0,1,13,0,45,3,8,0,false
0.9.0,3,1,0,0,0,0,1,1,45,2,6,0,false
0.9.0,8,3,0,0,0,0,5,1,45,3,10,0,false
0.9.0,3,1,0,0,0,1,0,0,0,1,4,0,false
0.9.0,2,1,0,0,0,0,0,0,45,2,7,0,false
0.9.0,3,1,0,0,0,1,0,0,0,1,4,0,false
0.9.6,21,10,5,0,0,1,2,1,168,3,5,0,false
0.9.0,4,1,0,0,0,0,0,1,45,2,4,1,false
0.9.6,1,1,0,0,0,0,0,0,185,2,4,0,false
0.9.0,3,1,0,0,0,1,1,2,45,2,8,0,false
0.9.6,10,3,1,0,1,0,0,2,70,2,10,1,false
0.9.6,1,1,0,0,0,0,1,0,185,2,2,0,true
0.9.6,13,6,4,0,0,0,2,2,168,1,1,1,false
0.9.6,3,1,1,0,0,0,0,0,185,2,2,0,false
0.9.6,5,3,1,0,0,1,12,2,185,1,3,0,true
0.9.6,5,2,1,0,0,2,0,0,168,1,1,1,false
0.9.6,3,1,0,0,0,1,1,1,168,2,3,0,false
0.9.0,3,2,0,0,0,1,1,0,37,2,6,0,false
0.9.6,3,1,0,0,0,1,3,1,168,2,2,1,false
0.9.6,4,1,0,0,0,0,0,1,185,1,2,0,true
0.9.0,3,1,0,0,0,1,0,0,0,1,4,0,false
0.9.6,5,1,0,0,0,0,0,0,185,1,1,0,false
0.9.6,3,1,0,0,0,1,0,0,168,3,3,0,false
0.9.6,13,2,3,0,0,1,0,0,168,3,6,3,false
0.9.6,3,1,0,0,0,0,0,0,185,2,5,0,false
0.9.0,2,1,0,0,0,0,1,0,45,2,6,0,false
0.9.0,3,2,1,0,0,0,1,1,45,1,4,0,false
0.9.0,3,1,0,0,0,1,0,0,0,1,4,0,false
0.9.6,11,6,3,0,0,0,1,4,185,4,19,0,true
0.9.6,7,5,1,0,0,3,0,3,168,3,3,1,false
0.9.6,1,1,0,0,0,0,1,0,185,1,2,0,false
0.9.0,3,1,0,0,0,1,0,0,0,1,5,0,false
0.9.6,4,3,0,0,0,0,0,0,168,1,1,0,false
0.9.6,3,1,0,0,0,0,0,0,168,3,5,0,false
0.9.0,3,1,0,0,0,1,0,1,45,2,7,0,false
0.9.6,3,1,0,0,0,1,8,0,185,4,19,0,true
0.9.6,3,1,1,0,0,0,0,0,0,1,1,0,false
0.9.0,3,1,1,0,0,0,0,0,45,2,8,0,false
0.9.6,9,2,3,0,0,1,2,3,185,4,13,1,true
0.9.6,3,1,0,0,0,0,0,0,185,2,4,0,false
0.9.6,3,1,0,0,0,1,0,0,168,2,3,0,false
0.9.6,4,1,0,0,0,0,0,1,94,1,1,0,false
0.9.6,3,1,0,0,0,1,0,0,168,1,2,0,false
0.9.6,9,3,0,1,0,3,0,2,168,1,1,0,true
0.9.6,1,1,0,0,0,0,1,0,168,1,2,0,false
0.9.0,1,1,0,0,0,0,0,0,45,3,8,0,false
0.9.6,3,2,1,0,0,0,0,0,185,2,2,0,false
0.9.6,4,2,0,0,0,2,0,0,168,2,7,0,false
0.9.6,8,2,0,0,1,0,0,2,185,2,2,1,true
0.9.0,3,1,0,0,0,0,0,0,0,1,4,0,false
0.9.0,3,1,0,0,0,0,0,0,37,2,4,0,false
0.9.6,3,1,0,0,0,1,0,0,168,2,2,0,false
0.9.0,1,1,0,0,0,0,0,0,45,3,6,0,false
0.9.6,1,1,0,0,0,0,0,0,185,2,5,0,false
0.9.6,3,1,0,0,0,1,0,0,168,2,3,0,false
0.9.0,2,1,0,0,0,0,0,0,37,2,3,0,false
0.9.0,5,3,1,0,0,2,1,1,45,3,8,0,false
0.9.6,3,1,0,0,0,1,1,1,168,2,2,0,false
0.9.6,3,1,0,0,0,1,0,1,168,2,3,0,false
0.9.0,4,1,0,0,0,0,0,2,45,3,13,0,false
0.9.0,10,2,1,0,1,1,0,1,45,2,8,2,false
0.9.0,9,3,2,0,0,3,1,7,45,2,6,0,false
0.9.0,3,1,0,0,0,1,1,3,45,1,5,0,false
0.9.0,3,1,0,0,0,1,0,0,45,1,4,0,false
0.9.0,23,10,1,0,0,0,0,9,45,2,6,0,false
0.9.0,2,1,0,0,0,0,0,0,45,2,6,0,false
0.9.6,3,1,0,0,0,0,0,0,168,2,2,0,false
0.9.6,9,2,0,0,1,1,10,2,185,4,19,0,true
0.9.0,5,1,1,0,0,1,4,2,45,2,8,0,false
0.9.0,11,3,2,0,1,0,3,3,45,3,11,0,false
0.9.0,5,1,3,0,0,0,4,0,45,3,8,0,false
0.9.6,3,1,1,0,0,0,0,0,168,2,5,0,false
0.9.0,3,1,0,0,0,1,0,0,0,1,4,0,false
0.9.0,1,1,0,0,0,0,0,0,45,3,8,0,false
0.9.6,9,2,0,0,1,1,0,2,185,4,19,0,true
0.9.6,9,2,1,0,1,0,0,2,168,1,1,2,false
0.9.6,3,1,0,0,0,1,0,0,168,1,2,0,false
0.9.6,4,3,0,0,0,2,0,0,168,2,2,0,false
0.9.6,3,1,0,0,0,0,0,0,185,2,4,0,false
0.9.6,10,3,3,0,0,0,0,0,185,2,2,10,false
0.9.0,1,1,0,0,0,0,0,0,45,3,8,0,false
0.9.6,3,1,0,0,0,0,0,0,168,3,5,0,false
0.9.6,4,2,1,0,0,1,1,0,168,1,2,0,false
0.9.6,4,2,1,0,0,1,1,3,168,2,7,0,false
0.9.6,69,27,23,0,0,6,2,5,185,2,8,7,false
0.9.6,3,1,0,0,0,1,0,0,185,1,1,0,false
0.9.0,3,1,0,0,0,0,1,0,45,2,6,0,false
0.9.0,40,29,5,0,0,10,1,11,37,2,4,10,false
0.9.0,20,7,4,2,0,4,1,0,0,1,7,0,false
0.9.6,13,5,8,0,0,0,1,8,185,3,9,3,false
0.9.6,3,1,0,0,0,1,0,0,185,1,3,0,false
0.9.6,3,1,0,0,0,1,0,1,168,1,1,0,false
0.9.0,5,1,1,0,0,0,0,4,37,2,3,0,false
0.9.6,3,1,0,0,0,1,0,0,185,1,1,0,false
0.9.0,3,1,0,0,0,1,0,0,45,3,11,0,false
0.9.6,3,1,0,0,0,1,0,0,185,2,2,0,false
0.9.6,4,1,0,0,0,0,1,2,185,3,10,0,false
0.9.6,3,1,0,0,0,1,6,1,185,2,5,0,false
0.9.0,3,1,0,0,0,0,1,2,45,3,13,0,false
0.9.0,18,6,0,0,1,0,0,5,45,3,11,1,false
0.9.6,7,1,1,0,0,1,1,2,185,1,1,0,false
0.9.6,3,1,0,0,0,1,0,0,185,1,1,0,false
0.9.0,3,1,0,0,0,1,0,3,45,2,7,0,false
0.9.0,6,3,0,0,0,0,4,7,37,2,3,3,false
0.9.0,3,1,0,0,0,1,0,0,0,1,5,0,false
0.9.0,3,1,0,0,0,1,0,1,45,2,6,1,false
0.9.6,1,1,0,0,0,0,7,0,94,1,1,0,false
0.9.6,3,1,0,0,0,1,0,0,168,3,3,0,false
0.9.0,18,6,1,0,0,0,1,5,37,2,3,0,false
0.9.0,3,1,0,0,0,1,0,0,37,1,2,0,false
0.9.0,3,1,0,0,0,0,0,0,0,1,5,0,false
0.9.6,4,1,0,0,0,1,0,0,185,1,1,0,false
0.9.0,1,1,0,0,0,0,4,0,45,1,3,0,false
0.9.6,3,1,0,0,0,1,0,1,185,2,3,0,true
0.9.0,4,2,1,1,0,1,13,2,45,3,10,1,false
0.9.0,42,6,10,0,0,0,1,12,45,4,8,18,false
0.9.6,8,5,3,0,0,1,7,3,185,4,13,2,true
0.9.6,1,1,0,0,0,0,0,0,185,2,5,0,false
0.9.6,3,1,0,0,0,0,0,0,185,2,4,0,false
0.9.0,3,1,0,0,0,0,0,0,0,1,6,0,false
0.9.6,3,1,0,0,0,0,0,0,185,2,4,0,false
0.9.0,13,6,0,0,0,3,12,0,0,1,5,0,false
0.9.6,3,1,0,0,0,1,0,0,185,1,1,0,false
0.9.6,4,1,0,0,0,0,0,2,185,3,10,0,false
0.9.0,3,1,0,0,0,1,0,0,0,1,4,0,false
0.9.6,4,2,0,1,0,1,0,0,94,1,1,0,false
0.9.0,9,1,1,0,1,1,0,3,0,1,5,0,false
0.9.0,32,9,13,3,0,0,0,6,37,2,3,6,false
0.9.0,15,4,6,3,0,1,0,1,0,1,5,1,false
0.9.6,3,2,0,0,0,0,0,0,94,1,1,1,false
0.9.0,22,6,8,0,1,2,1,7,37,2,2,5,false
0.9.6,3,1,1,0,0,0,0,0,78,2,2,0,false
0.9.6,7,3,0,0,0,2,0,2,185,4,13,0,true
0.9.6,3,1,0,0,0,1,1,1,185,4,16,0,false
0.9.0,10,4,3,0,0,2,0,1,45,2,6,2,false
0.9.6,3,1,0,0,0,1,0,0,78,2,2,0,false
0.9.6,12,5,6,0,0,0,0,3,168,1,1,2,false
0.9.0,5,1,0,0,0,0,1,0,45,2,4,0,false
0.9.0,3,1,0,0,0,1,0,0,45,2,6,0,false
0.9.6,4,4,1,0,0,1,2,4,168,2,5,4,false
0.9.6,9,3,4,0,0,1,10,3,185,2,2,3,true
0.9.6,3,1,0,0,0,1,0,1,168,3,5,0,false
0.9.0,3,1,0,0,0,1,0,2,0,1,8,0,false
0.9.0,3,1,0,0,0,1,1,1,37,1,2,0,false
0.9.6,7,2,4,0,0,0,2,1,185,4,14,1,true
0.9.0,4,1,1,0,0,1,1,0,45,1,4,0,false
0.9.6,12,4,2,0,0,3,0,0,20,1,1,0,false
0.9.0,5,3,1,0,0,1,1,1,45,2,6,0,false
0.9.0,3,1,0,0,0,1,0,0,45,2,5,0,false
0.9.0,3,1,0,0,0,1,0,1,45,3,6,0,false
0.9.6,10,5,4,1,0,1,0,1,185,2,2,0,true
0.9.0,3,1,0,0,0,1,4,1,45,4,8,0,false
0.9.6,3,1,0,0,0,0,0,0,33,3,5,0,false
0.9.0,3,2,0,0,0,1,0,0,37,1,2,0,false
0.9.0,17,8,5,0,0,1,1,1,37,3,3,0,false
0.9.0,7,1,3,0,0,1,2,1,37,2,3,1,false
0.9.6,3,1,0,1,0,0,1,0,185,2,6,0,false
0.9.6,4,2,1,0,0,1,0,0,94,2,2,0,false
0.9.6,58,41,9,0,0,10,3,3,185,3,4,1,false
0.9.6,3,1,0,0,0,1,3,1,168,2,7,0,false
0.9.0,3,1,0,0,0,0,0,1,37,2,6,0,false
0.9.0,6,4,1,0,0,0,0,0,0,2,9,0,false
0.9.6,3,1,0,0,0,1,0,0,83,2,2,0,false
0.9.6,3,1,0,0,0,1,0,1,168,2,3,0,false
0.9.6,5,3,3,0,0,0,0,0,185,4,7,0,false
0.9.6,19,6,4,0,1,0,0,7,94,1,1,2,false
0.9.0,3,1,0,0,0,1,0,0,0,1,4,0,false
0.9.6,44,10,6,0,2,2,3,5,168,1,3,12,false
0.9.0,3,1,0,0,0,0,0,0,0,1,4,0,false
0.9.6,3,1,0,0,0,0,0,0,185,2,4,0,false
0.9.6,3,1,0,0,0,1,0,0,185,2,2,0,true
0.9.0,7,2,3,0,0,0,0,0,37,2,6,0,false
0.9.0,3,1,0,0,0,1,0,0,45,2,5,0,false
0.9.6,3,1,0,0,0,0,0,0,33,3,5,0,false
0.9.6,3,1,0,0,0,1,0,0,168,2,2,0,false
0.9.6,8,2,0,0,1,1,0,2,185,2,2,1,true
0.9.0,3,1,0,0,0,1,0,0,45,3,6,0,false
0.9.0,3,1,0,0,0,1,0,0,45,2,4,0,false
0.9.6,15,4,4,0,0,0,1,0,185,2,2,0,false
0.9.6,3,1,0,0,0,0,0,1,185,2,3,0,true
0.9.6,1,1,0,0,0,0,2,0,185,2,2,0,true
0.9.6,19,8,4,0,1,1,0,11,185,4,19,7,true
0.9.6,9,6,2,0,0,2,1,0,185,1,1,2,false
0.9.6,1,1,0,0,0,0,0,0,185,2,5,0,false
0.9.6,3,1,0,0,0,1,0,1,185,3,10,0,true
0.9.6,3,1,0,0,0,1,0,2,168,2,5,0,true
0.9.0,3,1,0,0,0,1,0,0,45,2,6,0,false
0.9.0,25,19,2,0,0,10,2,0,45,2,6,2,false
0.9.0,7,1,0,0,0,0,0,6,45,1,3,0,false
0.9.6,3,1,0,0,0,1,0,0,185,3,6,0,true
0.9.0,3,2,0,0,0,0,1,0,37,1,2,0,false
0.9.0,4,1,2,0,0,0,1,0,45,3,10,0,false
0.9.0,1,1,0,0,0,0,17,0,45,2,5,0,false
0.9.6,4,2,1,0,0,1,0,0,168,2,2,0,false
0.9.0,3,1,0,0,0,1,0,2,45,2,7,0,false
0.9.0,10,10,2,3,0,4,2,1,0,1,7,1,false
0.9.0,7,5,2,0,0,2,0,0,0,1,5,0,false
0.9.0,3,1,0,0,0,1,0,0,0,1,4,0,false
0.9.6,3,1,1,0,0,0,1,0,168,3,3,0,false
0.9.6,19,10,7,0,0,1,2,4,168,2,2,2,false
0.9.0,9,2,0,0,1,1,0,2,45,3,7,1,false
0.9.6,6,2,1,0,0,0,0,1,168,2,4,0,false
0.9.6,3,1,0,0,0,1,0,1,185,2,3,0,true
0.9.0,3,2,0,0,0,1,0,0,45,3,8,0,false
0.9.0,3,1,0,0,0,1,0,1,37,3,6,0,false
0.9.0,3,1,0,0,0,1,0,0,37,1,2,0,false
0.9.0,3,2,0,0,0,1,1,0,37,1,2,0,false
0.9.0,3,1,0,0,0,1,1,1,37,2,4,0,false
0.9.6,3,1,0,0,0,0,0,0,185,2,5,0,false
0.9.6,13,4,4,1,1,0,0,4,94,2,2,1,false
0.9.6,3,1,0,0,0,1,0,0,168,1,1,0,false
0.9.0,3,1,0,0,0,1,1,0,45,1,4,0,false
0.9.0,15,8,4,0,0,1,2,3,45,2,6,4,false
0.9.6,7,5,1,0,0,3,0,2,168,3,3,1,false
0.9.6,5,3,1,0,0,2,2,3,185,4,13,2,true
0.9.6,3,1,0,0,0,1,0,0,185,1,1,0,false
0.9.0,1,1,0,0,0,0,1,0,45,1,4,0,false
0.9.0,3,2,0,0,0,0,0,1,0,2,9,0,false
0.9.6,3,1,0,0,0,1,3,1,168,2,7,0,false
0.9.0,3,1,0,0,0,0,0,0,45,2,5,0,false
0.9.0,3,1,0,0,0,1,0,0,37,2,3,0,false
0.9.0,3,1,0,0,0,1,20,1,45,3,13,0,false
0.9.0,3,1,0,0,0,0,0,1,45,2,7,0,false
0.9.6,2,1,0,0,0,0,0,0,168,1,1,0,false
0.9.6,3,1,0,0,0,1,0,0,94,2,2,0,false
0.9.6,3,1,0,0,0,1,0,0,185,1,1,0,false
0.9.6,3,1,0,0,0,1,0,1,168,2,2,0,false
0.9.6,5,4,0,0,0,3,0,1,185,4,13,0,true
0.9.6,2,1,0,0,0,0,0,0,168,1,1,0,false
0.9.6,1,1,0,0,0,0,2,0,185,2,2,0,true
0.9.6,3,1,0,0,0,0,0,0,185,2,4,0,false
0.9.6,10,3,0,0,0,0,0,0,33,3,5,0,false
0.9.6,3,1,0,0,0,0,0,0,185,1,1,0,false
0.9.6,4,1,0,0,0,0,0,1,185,1,2,0,true
0.9.0,3,1,0,0,0,0,0,0,45,2,5,0,false
0.9.0,3,2,0,0,0,1,0,0,0,2,7,0,false
0.9.0,75,33,19,0,0,1,0,3,45,1,7,7,false
0.9.0,27,13,4,1,0,2,1,7,45,2,6,13,false
0.9.6,3,2,0,0,0,0,0,1,185,3,10,0,false
0.9.6,5,1,2,0,0,1,0,0,185,2,4,0,false
0.9.6,42,20,1,0,0,0,0,0,168,2,2,0,false
0.9.6,3,1,1,0,0,0,3,0,185,2,2,0,false
0.9.0,4,1,2,0,0,0,1,0,45,3,10,0,false
0.9.6,3,1,0,0,0,1,5,0,185,4,13,0,true
0.9.0,3,1,0,0,0,1,0,1,45,1,4,0,false
0.9.6,3,1,0,0,0,0,0,0,185,2,4,0,false
0.9.0,4,1,1,0,0,0,1,1,45,3,11,0,false
0.9.0,3,1,0,0,0,0,0,0,45,2,5,0,false
0.9.0,9,3,0,0,1,1,1,2,45,2,5,1,false
0.9.0,3,1,0,0,0,0,0,0,45,2,5,0,false
0.9.0,3,1,1,0,0,0,0,0,45,3,10,0,false
0.9.0,3,1,0,0,0,0,0,0,0,1,4,0,false
0.9.0,3,2,0,0,0,1,1,2,45,2,6,1,false
0.9.0,3,1,0,0,0,1,7,0,45,3,13,0,false
0.9.6,3,1,0,0,0,0,0,1,168,1,1,0,false
0.9.0,3,1,0,0,0,1,0,1,45,1,4,0,false
0.9.0,9,5,2,0,0,1,1,4,45,2,5,1,false
0.9.0,16,7,5,0,1,1,1,3,45,2,10,1,false
0.9.0,3,1,0,0,0,1,0,1,37,3,6,0,false
0.9.0,5,2,2,0,0,1,1,5,45,1,5,1,false
0.9.0,5,4,0,0,0,1,0,3,45,2,8,0,false
0.9.6,3,1,1,0,0,0,1,0,185,2,2,0,true
0.9.6,4,1,0,0,0,0,0,2,168,3,4,0,false
0.9.0,4,3,1,0,0,2,0,1,0,2,6,0,false
0.9.0,3,2,0,0,0,1,0,0,37,2,6,0,false
0.9.6,9,6,2,0,0,5,4,2,185,4,13,3,true
0.9.6,9,5,2,0,0,1,0,0,168,2,3,1,false
0.9.0,3,2,0,0,0,0,0,2,45,2,5,0,false
0.9.6,16,5,2,0,1,1,2,1,33,3,5,1,false
0.9.0,32,10,16,0,0,2,2,22,45,2,6,10,false
0.9.0,9,7,2,0,0,4,3,1,37,2,4,5,false
0.9.0,4,1,0,0,0,1,0,2,45,2,6,0,false
0.9.6,3,1,0,0,0,1,0,1,185,1,2,0,false
0.9.0,3,1,0,0,0,1,6,0,45,3,8,0,false
0.9.6,9,3,0,0,1,2,0,2,185,1,1,1,false
0.9.6,7,6,1,0,0,4,0,1,185,1,1,0,false
0.9.6,7,2,1,0,0,2,0,0,185,4,13,1,true
0.9.6,3,1,0,0,0,0,0,0,185,1,3,0,false
0.9.6,3,1,0,0,0,1,6,0,168,1,2,0,false
0.9.6,8,4,2,0,0,2,1,1,185,4,19,0,true
0.9.6,3,1,0,0,0,1,0,1,185,2,5,0,false
0.9.6,31,8,8,2,2,1,0,3,94,1,1,1,false
0.9.6,54,23,18,0,2,7,1,10,168,2,5,3,true
0.9.0,3,1,0,0,0,0,0,0,45,3,13,0,false
0.9.6,3,2,0,0,0,1,1,2,185,3,6,1,true
0.9.6,18,1,15,0,0,1,1,0,20,1,1,0,false
0.9.0,5,1,1,0,0,1,3,2,45,2,6,1,false
0.9.0,3,1,0,0,0,1,0,0,0,1,4,0,false
0.9.0,2,1,0,0,0,0,0,0,45,3,6,0,false
0.9.0,21,1,4,0,0,0,1,13,45,2,6,1,false
0.9.0,5,4,1,0,0,1,2,0,0,2,6,0,false
0.9.0,3,1,0,0,0,1,0,0,37,2,2,0,false
0.9.0,5,2,1,0,0,1,2,0,45,4,9,0,false
0.9.0,6,3,3,1,0,1,0,0,45,1,4,0,false
0.9.0,10,3,2,0,1,1,3,1,37,3,9,2,false
0.9.0,3,1,0,0,0,1,2,1,45,3,10,0,false
0.9.0,42,12,17,0,0,2,0,5,37,2,4,8,false
0.9.6,3,1,0,0,0,0,0,1,168,1,1,0,false
0.9.0,5,2,1,0,0,0,1,4,45,3,8,0,false
0.9.0,6,3,3,6,0,1,0,0,45,2,4,0,false
0.9.0,3,3,0,0,0,1,8,0,45,3,10,0,false
0.9.0,30,8,8,2,1,0,0,7,45,2,6,6,false
0.9.0,3,1,0,0,0,0,0,3,45,2,7,0,false
0.9.0,4,2,0,0,0,0,0,1,37,2,3,0,false
0.9.6,3,1,0,0,0,0,0,0,168,2,3,0,false
0.9.6,20,10,3,0,0,1,1,4,185,4,19,1,true
0.9.0,3,1,0,0,0,0,0,0,45,1,4,0,false
0.9.0,3,1,1,0,0,0,0,0,45,3,8,0,false
0.9.0,3,1,0,0,0,0,6,0,45,1,4,0,false
0.9.0,6,3,1,0,0,2,2,1,37,2,2,0,false
0.9.6,3,1,0,0,0,1,0,1,168,2,3,0,false
0.9.6,3,1,0,0,0,1,0,0,185,2,5,0,false
0.9.6,6,3,1,0,0,3,0,0,168,2,2,0,false
0.9.0,3,1,0,0,0,1,0,1,45,2,7,0,false
0.9.0,3,1,0,0,0,1,0,1,37,2,5,0,false
0.9.0,1,1,0,0,0,0,3,0,45,2,5,0,false
0.9.6,14,7,0,0,1,1,1,4,185,4,16,1,false
0.9.6,3,1,0,0,0,1,0,1,185,2,3,0,true
0.9.0,4,1,0,0,0,0,0,2,45,3,13,0,false
0.9.6,3,1,0,0,0,0,0,0,185,2,4,0,false
0.9.6,10,1,3,0,1,0,0,0,185,2,5,0,false
0.9.6,3,1,0,0,0,1,0,0,168,3,5,0,false
0.9.6,2,1,0,0,0,0,0,0,168,1,1,0,false
0.9.6,4,3,0,0,0,2,2,2,168,2,7,1,false
0.9.0,8,2,0,0,1,1,1,2,45,3,7,1,false
0.9.0,3,2,1,0,0,0,1,0,45,3,10,0,false
0.9.6,3,1,0,0,0,0,0,0,185,1,1,0,false
0.9.6,8,6,1,0,0,4,1,0,185,2,3,0,false
0.9.0,2,1,0,0,0,0,0,0,45,3,6,0,false
0.9.0,3,1,0,0,0,1,0,0,45,2,5,0,false
0.9.0,7,5,4,2,0,1,2,0,37,2,3,3,false
0.9.6,3,1,0,0,0,1,1,0,185,4,7,0,false
0.9.0,12,3,3,0,0,1,0,1,0,1,5,1,false
0.9.0,7,8,0,0,0,5,4,3,45,3,11,2,false
0.9.0,3,1,0,0,0,0,0,1,45,2,7,0,false
0.9.6,3,1,0,0,0,1,69,0,185,4,13,0,true
0.9.0,9,4,4,0,0,1,3,1,45,1,4,0,false
0.9.6,1,1,0,0,0,0,1,0,185,1,1,0,false
0.9.0,1,1,0,0,0,0,1,0,45,1,4,0,false
0.9.0,10,3,1,0,1,2,1,0,45,2,7,1,false
0.9.0,3,1,0,0,0,1,1,0,45,2,6,0,false
0.9.6,3,1,0,0,0,0,7,1,185,4,14,0,true
0.9.6,3,1,0,0,0,0,0,0,185,4,14,0,true
0.9.6,1,1,0,0,0,0,0,0,168,1,1,0,false
0.9.0,3,1,0,1,0,1,0,0,0,1,5,0,false
0.9.6,4,2,1,0,0,0,0,1,94,2,2,0,false
0.9.6,1,1,0,0,0,0,0,0,185,2,5,0,false
0.9.0,3,1,0,0,0,0,1,1,45,2,6,0,false
0.9.0,8,2,0,0,1,1,1,2,45,3,7,1,false
0.9.6,3,1,0,0,0,0,0,0,168,1,1,0,false
0.9.0,3,2,0,0,0,1,76,0,45,3,7,0,false
0.9.6,3,1,0,0,0,0,0,0,185,1,1,0,false
0.9.6,1,1,0,0,0,0,0,0,185,2,5,0,false
0.9.6,12,4,5,0,0,1,1,0,185,4,13,0,true
0.9.6,1,1,0,0,0,0,0,0,168,1,2,0,false
0.9.6,3,1,0,0,0,1,0,0,185,1,1,0,false
0.9.0,3,1,0,0,0,0,0,0,0,1,5,0,false
0.9.6,3,1,0,0,0,1,1,0,0,1,1,0,false
0.9.0,9,1,0,0,1,0,2,3,45,3,11,0,false
0.9.6,3,1,0,0,0,1,3,2,185,1,3,1,true
0.9.6,9,1,7,0,0,0,9,0,185,4,13,0,true
0.9.6,8,5,5,0,0,0,2,3,168,3,5,2,false
0.9.0,3,1,0,0,0,1,0,0,37,2,6,0,false
0.9.6,1,1,0,0,0,0,0,0,185,2,5,0,false
0.9.0,3,1,0,1,0,1,1,0,45,4,8,0,false
0.9.6,3,1,0,0,0,1,0,0,185,1,1,0,false
0.9.0,3,1,0,0,0,1,4,2,45,3,11,0,false
0.9.6,3,1,1,0,0,0,0,1,168,3,3,0,false
0.9.6,4,1,0,0,0,0,0,1,94,1,1,0,false
0.9.6,3,1,0,0,0,1,0,0,185,1,1,0,false
0.9.0,27,13,11,0,0,2,2,6,45,1,4,7,false
0.9.0,3,1,0,0,0,1,0,1,37,2,2,3,false
0.9.6,1,1,0,0,0,0,0,0,185,2,5,0,false
0.9.6,32,10,16,0,0,2,2,22,185,3,6,12,true
0.9.6,3,1,0,0,0,0,0,0,168,3,5,0,false
0.9.0,3,1,0,0,0,1,0,0,37,2,2,0,false
0.9.6,3,1,0,0,0,1,0,0,185,1,1,0,false
0.9.0,37,12,20,17,0,2,2,1,45,1,5,3,false
0.9.6,4,3,0,0,0,0,0,0,168,1,1,0,false
0.9.0,7,2,1,1,0,1,1,2,0,1,5,0,false
0.9.0,8,1,0,0,1,0,0,2,0,1,5,0,false
0.9.6,3,1,0,0,0,0,0,0,185,2,5,0,false
0.9.0,7,2,3,0,0,0,1,3,37,1,2,2,false
0.9.6,15,10,2,0,0,4,0,1,168,1,2,2,false
0.9.6,16,7,4,0,0,4,0,2,185,2,5,3,false
0.9.6,4,1,0,0,0,0,2,2,185,4,13,0,true
0.9.6,13,1,1,0,0,1,1,1,185,1,1,29,false
0.9.6,3,1,0,0,0,1,0,1,168,2,5,0,false
0.9.0,3,1,0,0,0,1,1,0,37,3,9,0,false
0.9.0,4,1,1,0,0,1,0,0,45,2,6,0,false
0.9.6,3,1,0,0,0,1,0,0,168,1,2,0,false
0.9.0,19,6,7,1,0,4,2,2,37,1,2,1,false
0.9.0,39,17,3,0,1,2,5,15,45,3,13,7,false
0.9.6,3,1,0,1,0,1,0,0,185,2,4,0,false
0.9.0,3,1,0,0,0,1,8,0,45,2,6,0,false
0.9.0,8,1,0,0,1,1,0,4,0,1,8,0,false
0.9.0,11,3,0,0,0,1,0,2,45,2,5,0,false
0.9.6,5,2,1,0,0,1,2,2,185,3,9,2,false
0.9.0,3,1,0,0,0,1,0,0,0,1,4,0,false
0.9.0,3,1,1,0,0,0,2,0,45,2,6,0,false
0.9.6,3,1,0,0,0,1,2,1,185,4,16,0,false
0.9.6,3,1,0,0,0,0,0,0,168,3,5,0,false
0.9.0,5,2,1,0,0,1,1,2,37,2,3,0,false
0.9.0,3,1,0,0,0,1,0,0,0,2,9,0,false
0.9.0,3,1,0,0,0,0,0,0,45,2,5,0,false
0.9.0,3,1,0,0,0,1,1,2,45,3,8,0,false
0.9.6,3,1,0,0,0,0,0,0,185,1,1,0,false
0.9.0,3,2,0,0,0,0,0,1,37,3,9,0,false
0.9.0,9,3,0,0,1,2,1,2,45,2,5,1,false
0.9.0,5,2,0,0,0,1,0,2,45,1,4,0,false
0.9.6,1,1,0,0,0,0,1,0,168,1,1,0,true
0.9.0,3,1,0,0,0,1,1,0,0,1,6,0,false
0.9.0,8,2,0,0,1,1,0,2,45,3,7,1,false
0.9.0,1,1,0,0,0,0,3,0,45,1,4,0,false
0.9.6,6,2,1,0,0,0,1,3,185,3,6,1,true
0.9.0,4,2,0,0,0,1,0,2,45,3,13,0,false
0.9.0,3,1,0,0,0,0,0,0,0,1,6,0,false
0.9.6,3,1,0,0,0,0,0,1,168,2,2,0,false
0.9.6,3,1,0,0,0,1,0,0,94,2,2,0,false
0.9.6,18,15,3,0,0,2,1,6,168,2,7,2,false
0.9.6,9,2,0,0,1,1,0,1,94,1,1,0,false
0.9.0,10,3,3,0,0,3,3,7,45,2,8,1,false
0.9.0,2,1,0,0,0,0,0,0,37,2,3,0,false
0.9.0,4,2,0,1,0,1,0,2,0,1,8,0,false
0.9.6,4,1,0,0,0,0,0,1,185,1,2,0,true
0.9.6,3,1,0,0,0,1,0,0,168,1,1,0,false
0.9.6,3,1,1,0,0,0,0,0,168,1,2,0,false
0.9.0,6,3,2,0,0,2,4,2,45,2,6,3,false
0.9.6,3,1,0,0,0,0,0,0,185,2,4,0,false
0.9.6,1,1,0,0,0,0,1,0,185,2,4,0,false
0.9.6,3,1,0,0,0,1,0,0,70,2,5,0,false
0.9.6,3,1,0,0,0,1,0,0,168,1,1,0,false
0.9.6,4,1,1,0,0,1,1,0,168,2,7,0,false
0.9.0,3,1,1,0,0,0,0,0,0,2,9,0,false
0.9.0,3,1,0,0,0,1,0,1,45,2,7,0,false
0.9.0,3,2,0,0,0,1,6,0,45,2,6,0,false
0.9.0,2,1,0,0,0,0,1,0,45,1,4,0,false
0.9.0,3,1,1,0,0,0,0,0,45,2,6,0,false
0.9.0,20,7,12,0,0,1,1,1,45,1,4,2,false
0.9.0,3,2,0,0,0,1,1,1,37,2,3,0,false
0.9.0,3,1,0,0,0,0,3,0,37,3,3,0,false
0.9.0,1,1,0,0,0,0,1,0,45,2,5,0,false
0.9.0,1,1,0,0,0,0,0,0,45,3,6,0,false
0.9.0,1,1,0,0,0,0,1,0,45,2,5,0,false
0.9.0,5,2,0,1,0,0,1,0,37,2,6,0,false
0.9.0,1,1,0,0,0,0,14,0,45,2,5,0,false
0.9.6,3,1,0,0,0,1,0,0,185,1,1,0,false
0.9.0,3,1,0,0,0,1,2,0,45,1,4,0,false
0.9.6,3,1,0,0,0,1,0,0,185,4,13,0,true
0.9.6,3,1,0,0,0,1,0,0,185,3,5,0,false
0.9.0,5,3,1,0,0,2,8,0,37,1,2,1,false
0.9.0,9,3,0,0,1,0,1,3,45,3,11,0,false
0.9.0,3,1,0,0,0,1,2,0,0,1,5,0,false
0.9.0,3,2,0,0,0,1,10,2,37,3,9,0,false
0.9.0,3,1,0,0,0,1,54,0,0,1,5,0,false
0.9.0,16,5,1,0,1,3,0,0,37,1,2,2,false
0.9.0,15,5,4,0,1,2,4,3,45,2,7,1,false
0.9.0,3,1,0,0,0,1,0,0,45,1,7,0,false
0.9.0,3,1,0,0,0,0,0,0,45,2,5,0,false
0.9.0,48,23,19,0,0,4,1,6,45,1,4,14,false
0.9.0,3,2,0,0,0,1,0,0,37,2,6,0,false
0.9.6,3,1,0,0,0,1,0,0,168,2,5,0,true
0.9.6,3,1,0,0,0,1,1,0,185,3,5,0,false
0.9.6,6,7,0,0,0,4,2,3,185,2,5,2,false
0.9.6,3,1,0,0,0,1,21,0,168,1,1,0,true
0.9.0,14,2,0,0,0,0,1,1,45,3,8,0,false
0.9.6,3,1,0,0,0,1,0,0,185,2,4,0,false
0.9.0,3,1,1,0,0,0,0,0,37,2,2,0,false
0.9.0,4,2,0,1,0,1,0,2,0,1,8,0,false
0.9.0,5,3,2,0,0,2,4,1,37,1,2,1,false
0.9.6,3,1,0,0,0,1,0,2,168,1,2,0,false
0.9.6,3,1,0,0,0,1,0,1,185,2,2,0,true
0.9.6,6,1,3,0,0,0,6,1,185,4,13,0,true
0.9.0,4,1,0,0,0,0,0,1,0,1,8,0,false
0.9.6,6,1,1,0,0,1,0,6,185,2,3,1,true
0.9.6,3,1,0,0,0,1,1,1,168,2,7,0,false
0.9.6,3,1,0,1,0,1,0,1,168,1,1,0,false
0.9.6,4,1,0,0,0,0,0,2,185,3,10,0,false
0.9.0,4,3,1,0,0,2,0,1,45,3,11,0,false
0.9.6,3,1,0,0,0,1,0,0,185,3,5,0,true
0.9.0,3,1,0,1,0,1,4,0,45,2,5,0,false
0.9.0,3,1,0,0,0,1,0,0,45,1,3,0,false
0.9.6,10,5,4,0,0,4,1,5,185,4,19,3,true
0.9.0,3,1,0,0,0,1,3,0,45,3,13,0,false
0.9.0,3,1,0,0,0,1,1,0,45,3,11,0,false
0.9.6,32,18,1,0,0,16,3,0,185,1,1,4,false
0.9.0,7,3,3,0,0,1,2,3,0,1,7,0,false
0.9.0,25,3,7,2,0,1,0,1,45,1,4,13,false
0.9.6,3,1,0,0,0,1,1,0,185,4,19,0,true
0.9.0,3,1,0,0,0,0,0,0,0,1,6,0,false
0.9.6,11,5,2,0,1,0,1,3,185,4,19,0,true
0.9.6,4,3,0,0,0,0,0,0,94,2,2,0,false
0.9.0,12,5,5,0,0,2,5,5,45,3,8,3,false
0.9.6,3,1,0,0,0,0,0,0,168,1,1,0,false
0.9.6,3,1,0,0,0,1,0,0,168,2,2,0,false
0.9.6,3,1,0,0,0,0,0,0,185,2,4,0,false
0.9.6,3,3,0,0,0,0,5,0,185,4,19,0,true
0.9.6,3,1,0,0,0,1,1,1,168,2,2,0,false
0.9.0,2,1,0,0,0,0,0,0,37,2,2,0,false
0.9.6,28,11,2,0,1,2,1,12,185,4,19,7,true
0.9.0,10,4,0,0,1,0,2,4,45,3,11,0,false
0.9.6,3,1,0,0,0,1,0,0,185,1,2,0,false
0.9.6,4,2,0,0,0,2,0,3,185,4,19,0,true
0.9.6,52,11,18,0,0,1,2,6,94,1,1,1,false
0.9.0,1,1,0,0,0,0,2,0,45,2,5,0,false
0.9.6,3,1,0,0,0,0,0,0,168,2,2,0,false
0.9.6,5,3,0,0,0,3,0,0,83,2,2,0,false
0.9.6,10,5,2,0,0,2,2,0,168,2,3,3,false
0.9.6,1,1,0,0,0,0,0,0,185,2,5,0,false
0.9.6,3,1,0,0,0,1,0,0,185,4,19,0,true
0.9.6,3,1,0,0,0,1,1,0,185,1,3,0,true
0.9.6,1,1,0,0,0,0,0,0,185,2,4,0,false
0.9.0,1,1,0,0,0,0,1,0,45,3,6,0,false
0.9.0,1,1,0,0,0,0,1,0,45,1,4,0,false
0.9.6,7,2,2,0,0,0,0,1,94,1,2,1,false
0.9.6,3,1,0,0,0,1,2,0,185,2,5,0,false
0.9.6,1,1,0,0,0,0,2,0,185,2,2,0,true
0.9.6,3,2,0,0,0,0,2,1,21,2,2,0,false
0.9.6,13,7,5,0,0,3,2,6,168,2,7,2,false
0.9.6,3,1,0,0,0,0,0,0,33,3,5,0,false
0.9.0,18,7,8,0,1,2,2,2,37,2,4,4,false
0.9.6,4,2,0,0,0,2,0,1,185,4,19,0,true
0.9.0,3,1,0,0,0,1,0,0,37,1,2,0,false
0.9.6,1,1,0,0,0,0,5,0,185,2,4,0,false
0.9.0,3,1,0,0,0,1,0,1,0,1,6,0,false
0.9.0,3,1,0,0,0,1,0,1,37,2,4,0,false
0.9.0,3,1,0,0,0,1,0,1,45,2,7,0,false
0.9.6,3,1,0,0,0,1,0,1,185,2,2,0,true
0.9.6,4,1,0,0,0,0,0,1,94,1,1,0,false
0.9.6,3,1,0,0,0,1,1,0,185,3,9,1,false
0.9.0,3,1,0,0,0,0,0,0,45,2,5,0,false
0.9.6,3,1,0,0,0,1,0,0,185,2,4,0,false
0.9.0,1,1,0,0,0,0,1,0,45,3,8,0,false
0.9.0,4,1,0,0,0,0,0,2,45,3,13,0,false
0.9.0,3,2,0,0,0,1,9,0,45,3,13,0,false
0.9.0,3,1,0,0,0,1,0,0,37,1,2,0,false
0.9.6,3,1,0,0,0,1,0,0,168,1,1,3,false
0.9.0,3,1,0,0,0,0,0,0,0,1,6,0,false
0.9.6,4,2,0,0,0,2,0,5,185,2,3,0,true
0.9.0,3,1,0,0,0,1,1,0,37,1,2,0,false
0.9.6,11,3,0,0,1,0,2,5,185,4,14,0,true
0.9.6,3,1,0,0,0,1,1,1,168,2,3,0,false
0.9.6,3,1,0,0,0,1,0,0,168,2,5,0,true
0.9.0,7,1,1,0,0,1,2,0,45,1,4,2,false
0.9.6,3,1,0,0,0,1,13,0,185,4,14,0,true
0.9.6,22,13,2,0,0,6,0,4,185,2,4,3,false
0.9.6,3,1,1,0,0,0,0,0,168,2,2,0,false
0.9.6,3,2,0,0,0,1,0,0,185,1,1,1,false
0.9.0,3,1,0,0,0,0,0,1,45,3,10,0,false
0.9.6,3,1,0,0,0,1,0,0,168,1,1,0,false
0.9.0,3,1,0,0,0,1,0,0,0,1,4,0,false
0.9.6,3,1,0,0,0,0,1,1,168,1,1,0,false
0.9.6,1,1,0,0,0,0,1,0,168,2,2,0,false
0.9.0,4,2,2,0,0,0,1,0,45,1,7,0,false
0.9.0,3,1,0,0,0,1,0,0,37,2,3,0,false
0.9.0,3,1,1,0,0,0,0,0,45,2,6,0,false
0.9.0,15,8,8,0,0,1,1,8,45,2,8,2,false
0.9.6,3,1,0,0,0,0,0,0,168,3,5,0,false
0.9.6,5,1,2,0,0,1,1,1,185,1,3,4,true
0.9.6,3,1,0,0,0,1,1,0,168,2,7,0,false
0.9.0,18,7,8,0,1,2,2,2,37,2,4,4,false
0.9.0,12,7,4,0,0,4,3,5,45,2,5,3,false
0.9.6,4,1,1,0,0,0,0,0,185,2,2,0,true
0.9.6,3,1,0,0,0,1,0,5,185,2,3,0,true
0.9.0,3,1,0,0,0,1,0,0,45,2,5,0,false
0.9.0,1,1,0,0,0,0,1,0,0,1,4,0,false
0.9.0,12,9,0,0,0,0,1,8,37,1,2,2,false
0.9.6,4,3,0,1,0,0,0,0,168,1,1,2,false
0.9.6,3,1,1,0,0,0,0,0,185,2,2,0,false
0.9.6,3,1,0,0,0,0,0,3,185,2,3,0,true
0.9.0,3,1,0,0,0,1,1,0,45,3,10,0,false
0.9.0,30,11,2,0,1,0,0,11,45,3,11,5,false
0.9.6,6,2,0,0,0,0,0,0,185,1,1,0,false
0.9.6,3,1,0,0,0,1,0,0,94,2,2,0,false
0.9.0,8,3,0,0,0,3,2,0,37,3,9,1,false
0.9.0,3,1,0,0,0,1,0,0,45,2,8,0,false
0.9.0,19,11,6,0,0,6,2,6,37,1,2,4,false
0.9.6,6,4,2,0,0,3,1,2,83,2,2,0,false
0.9.0,5,3,1,0,0,1,12,2,45,2,6,0,false
0.9.0,3,1,0,0,0,1,0,1,37,2,4,0,false
0.9.0,27,17,7,1,0,10,0,0,37,2,4,2,false
0.9.6,4,2,0,0,0,2,0,0,168,2,2,0,false
0.9.6,3,1,1,0,0,0,0,0,94,1,1,0,false
0.9.6,3,1,0,0,0,1,0,0,185,1,2,0,false
0.9.6,4,2,0,0,0,0,0,0,168,2,2,0,false
0.9.6,24,22,0,0,0,21,0,0,185,2,5,0,false
0.9.6,3,1,0,0,0,1,0,0,185,2,4,0,false
0.9.6,3,1,0,0,0,1,0,0,168,1,2,0,false
0.9.6,8,2,0,0,1,1,0,2,185,2,2,1,true
0.9.0,1,1,0,0,0,0,0,0,45,3,8,0,false
0.9.0,3,1,0,0,0,0,0,0,45,2,5,0,false
0.9.0,7,3,2,0,0,1,5,2,45,3,8,1,false
0.9.0,3,1,1,0,0,0,0,0,37,2,4,0,false
0.9.6,1,1,0,0,0,0,0,0,185,2,5,0,false
0.9.6,3,1,0,0,0,0,0,0,168,3,5,0,false
0.9.6,3,1,1,0,0,0,0,0,0,1,1,0,false
0.9.6,1,1,0,0,0,0,1,0,185,2,4,0,false
0.9.0,3,1,0,0,0,1,0,1,37,2,4,0,false
0.9.6,91,48,26,0,0,2,1,8,185,2,8,11,false
0.9.0,20,7,7,0,0,1,2,2,37,2,3,12,false
0.9.6,3,1,0,0,0,0,0,0,33,3,5,0,false
0.9.0,3,1,1,0,0,0,0,0,37,2,4,0,false
0.9.6,4,1,1,0,0,0,0,1,185,4,19,0,true
0.9.6,3,1,0,0,0,1,2,0,168,1,2,0,false
0.9.0,3,1,0,0,0,0,0,3,45,2,7,0,false
0.9.6,3,1,0,0,0,1,0,0,78,2,2,0,false
0.9.6,3,1,0,0,0,1,0,0,168,3,5,0,false
0.9.6,4,1,0,0,0,0,0,1,168,3,4,0,false
0.9.0,3,1,0,0,0,1,18,1,45,2,7,0,false
0.9.0,3,1,0,0,0,1,0,0,0,1,4,0,false
0.9.6,3,1,0,0,0,0,0,0,185,4,14,0,true
0.9.6,3,1,0,0,0,1,0,0,185,2,5,0,false
0.9.0,9,2,0,0,1,1,1,2,45,3,7,1,false
0.9.6,6,2,2,0,0,2,1,1,94,1,2,0,false
0.9.0,1,1,0,0,0,0,3,0,45,3,8,0,false
0.9.6,4,1,1,0,0,1,1,2,168,3,5,2,false
0.9.0,3,1,0,0,0,0,0,0,0,1,5,0,false
0.9.6,3,1,1,0,0,0,2,0,185,2,2,0,false
0.9.0,3,1,1,0,0,0,0,1,0,1,6,0,false
0.9.0,4,1,2,0,0,0,7,0,45,3,10,0,false
0.9.6,5,3,1,0,0,1,0,1,168,1,1,1,false
0.9.0,3,1,0,0,0,0,0,0,45,2,5,0,false
0.9.6,3,1,0,0,0,1,0,0,94,1,1,0,false
0.9.0,3,1,1,0,0,0,0,0,37,2,2,0,false
0.9.6,3,2,0,0,0,0,0,1,168,1,1,0,false
0.9.0,4,1,0,0,0,1,0,2,45,2,6,0,false
0.9.6,4,2,0,0,0,2,1,1,185,1,3,0,false
0.9.0,4,2,0,1,0,1,0,2,0,1,8,0,false
0.9.0,3,1,0,0,0,1,0,0,0,1,4,0,false
0.9.0,8,8,1,1,0,1,0,6,45,1,4,2,false
0.9.0,5,2,2,0,0,1,0,2,45,3,11,0,false
0.9.6,4,2,0,0,0,2,0,0,185,1,1,0,false
0.9.6,3,2,0,0,0,1,1,1,168,2,7,0,false
0.9.6,10,3,1,0,1,0,0,1,70,2,10,1,false
0.9.0,4,2,0,0,0,1,0,2,45,2,7,0,false
0.9.0,6,2,2,1,0,2,2,2,0,1,6,0,false
0.9.0,3,1,0,0,0,1,0,0,0,1,4,0,false
0.9.6,1,1,0,0,0,0,0,0,185,2,5,0,false
0.9.6,3,1,0,0,0,0,0,0,168,3,5,0,false
0.9.0,3,1,0,0,0,1,0,0,0,1,4,0,false
0.9.0,4,1,0,0,0,0,0,1,45,4,9,0,false
0.9.0,16,5,1,0,1,1,4,6,45,3,13,0,false
0.9.6,7,2,2,0,0,2,0,7,168,1,1,1,false
0.9.6,28,4,18,0,0,0,1,19,185,4,19,3,true
0.9.6,6,3,1,0,0,3,0,0,185,4,7,2,false
0.9.6,13,4,1,0,1,1,0,3,185,2,4,0,false
0.9.6,8,2,0,0,1,0,0,2,185,2,2,1,true
0.9.6,3,1,1,0,0,0,0,0,185,1,1,0,false
0.9.6,3,1,0,0,0,1,0,0,185,2,3,0,true
0.9.6,3,1,0,0,0,0,1,3,185,3,5,0,true
0.9.6,4,3,0,0,0,0,2,1,185,4,7,0,false
0.9.6,5,3,0,0,0,3,0,0,185,2,2,0,true
0.9.0,1,1,0,0,0,0,16,0,45,2,5,0,false
0.9.0,3,1,0,0,0,1,0,1,37,2,4,0,false
0.9.0,3,1,0,0,0,1,0,1,45,2,7,0,false
0.9.0,3,1,0,0,0,0,0,0,37,2,5,0,false
0.9.6,18,4,2,0,1,2,5,2,185,3,10,1,true
0.9.0,3,1,0,0,0,1,0,1,37,3,6,0,false
0.9.0,3,1,0,0,0,1,1,0,37,2,3,0,false
0.9.0,3,1,0,0,0,1,0,0,45,1,4,0,false
0.9.6,3,1,0,0,0,1,0,1,185,3,10,0,false
0.9.6,3,1,0,0,0,1,0,0,185,2,4,0,false
0.9.0,3,1,0,0,0,1,0,0,45,3,6,0,false
0.9.6,2,1,0,0,0,0,0,0,168,3,3,0,false
0.9.0,3,1,1,0,0,0,0,0,45,2,5,0,false
0.9.0,1,1,0,0,0,0,2,0,45,2,5,0,false
0.9.6,6,3,1,0,0,3,0,0,168,2,7,2,false
0.9.6,25,13,11,2,0,0,1,2,168,3,6,11,false
0.9.0,1,1,0,0,0,0,1,0,45,1,4,0,false
0.9.6,4,1,0,0,0,1,0,0,83,2,2,0,false
0.9.6,3,1,0,0,0,1,0,0,168,3,5,0,false
0.9.6,3,1,0,0,0,1,0,0,185,1,1,0,false
0.9.6,3,1,0,0,0,1,0,0,168,2,7,0,false
0.9.6,4,1,0,0,0,0,0,0,185,1,1,0,false
0.9.6,3,1,0,0,0,1,0,0,168,1,2,0,false
0.9.0,26,8,5,1,2,3,0,1,0,1,6,6,false
0.9.6,3,1,0,0,0,0,0,1,168,1,1,0,false
0.9.0,3,1,0,0,0,1,0,0,45,3,7,0,false
0.9.6,3,1,0,0,0,1,3,0,168,2,7,0,false
0.9.6,1,1,0,0,0,0,1,0,185,1,2,0,false
0.9.0,5,3,1,0,0,2,1,1,45,2,5,0,false
0.9.6,7,3,4,0,0,1,0,1,168,1,1,0,false
0.9.0,3,1,0,0,0,0,1,0,45,2,7,1,false
0.9.6,10,3,1,0,1,2,0,1,168,1,1,0,false
0.9.0,3,1,0,0,0,1,0,0,0,1,6,0,false
0.9.0,3,1,0,0,0,0,0,3,45,2,7,0,false
0.9.0,3,1,0,0,0,1,0,0,45,2,4,0,false
0.9.6,1,1,0,0,0,0,1,0,168,1,1,0,false
0.9.0,2,1,0,0,0,0,0,0,37,2,3,0,false
0.9.0,8,3,3,0,0,1,3,2,37,3,6,1,false
0.9.6,14,6,2,0,0,1,1,2,33,3,5,0,false
0.9.0,3,1,0,0,0,1,0,1,45,3,13,0,false
0.9.6,18,4,7,3,0,1,42,6,185,4,13,1,true
0.9.6,1,1,0,0,0,0,0,0,185,2,4,0,false
0.9.0,3,1,0,0,0,1,0,0,37,2,8,0,false
0.9.0,1,1,0,0,0,0,1,0,45,1,4,0,false
0.9.6,2,1,0,0,0,0,0,0,168,2,5,0,true
0.9.6,3,1,0,0,0,0,0,0,185,1,1,0,false
0.9.6,3,1,0,0,0,1,1,0,185,2,2,0,true
0.9.6,3,1,0,0,0,0,0,3,185,2,3,0,true
0.9.0,5,3,1,0,0,0,1,3,45,3,11,0,false
0.9.6,58,30,24,2,0,1,3,4,94,2,2,2,false
0.9.0,3,1,0,0,0,0,0,0,0,1,6,0,false
0.9.6,3,1,0,0,0,1,1,0,185,4,16,0,false
0.9.0,3,1,0,0,0,1,0,0,0,1,4,0,false
0.9.0,3,1,0,0,0,1,0,1,37,2,4,0,false
0.9.6,3,2,0,0,0,1,0,0,168,1,1,0,false
0.9.6,3,1,0,0,0,1,0,0,185,2,4,0,false
0.9.0,3,2,0,0,0,1,0,0,45,3,7,0,false
0.9.0,4,1,0,0,0,1,3,2,45,2,6,0,false
0.9.6,52,33,29,6,0,5,1,6,185,1,1,3,false
0.9.6,3,1,0,0,0,1,2,2,168,1,3,0,false
0.9.6,3,1,1,0,0,0,0,0,168,3,3,0,false
0.9.0,16,5,3,0,1,0,2,6,45,3,13,2,false
0.9.6,4,2,1,0,0,0,0,0,168,1,1,0,false
0.9.6,27,2,9,2,0,0,1,2,0,2,2,21,false
0.9.0,3,1,1,0,0,0,0,0,45,1,5,0,false
0.9.0,3,1,1,0,0,0,0,0,45,3,13,0,false
0.9.0,9,1,1,0,0,1,0,0,45,2,6,4,false
0.9.0,3,1,0,0,0,1,0,1,37,2,5,0,false
0.9.6,48,19,1,0,0,0,0,17,185,3,6,0,true
0.9.0,3,1,0,0,0,1,0,1,37,2,3,0,false
0.9.6,1,1,0,0,0,0,0,0,185,2,5,0,false
0.9.6,2,1,0,0,0,0,0,0,185,2,4,0,false
0.9.6,3,1,0,0,0,1,0,0,185,2,4,0,false
0.9.6,11,6,2,0,0,2,11,2,185,4,19,3,true
0.9.6,3,1,0,0,0,1,8,0,168,1,1,0,false
0.9.6,3,1,0,0,0,1,2,3,168,2,2,0,false
0.9.0,1,1,0,0,0,0,2,0,37,2,2,0,false
0.9.6,3,1,0,0,0,1,1,0,185,3,5,0,false
0.9.6,23,8,0,0,2,2,0,6,185,4,19,2,true
0.9.0,3,1,0,0,0,0,0,3,45,2,7,0,false
0.9.6,21,5,6,2,0,2,1,1,168,1,1,2,false
0.9.6,1,1,0,0,0,0,1,0,185,2,2,0,true
0.9.6,3,1,0,0,0,0,6,1,185,4,19,0,true
0.9.0,15,7,2,0,0,1,1,0,45,3,11,0,false
0.9.6,3,1,0,0,0,0,0,0,185,2,4,0,false
0.9.0,3,1,0,0,0,1,1,1,45,3,13,0,false
0.9.0,3,1,0,0,0,1,0,0,45,2,7,0,false
0.9.6,3,1,0,0,0,0,0,0,168,3,5,0,false
0.9.6,3,1,1,0,0,0,0,0,168,1,2,0,false
0.9.0,3,1,0,0,0,1,0,2,45,3,10,0,false
0.9.6,3,1,0,0,0,1,0,0,185,1,2,0,false
0.9.6,3,1,0,0,0,1,0,0,94,1,1,0,false
0.9.0,3,1,0,0,0,1,0,0,37,2,4,0,false
0.9.6,3,1,1,0,0,0,0,0,185,2,5,0,false
0.9.0,3,1,0,0,0,0,0,0,0,1,4,0,false
0.9.6,3,1,0,0,0,1,0,1,185,2,3,0,true
0.9.6,1,1,0,0,0,0,0,0,185,2,5,0,false
0.9.0,3,1,0,0,0,1,1,1,45,3,8,1,false
0.9.6,21,5,3,0,3,0,1,2,168,1,1,3,false
0.9.0,3,1,0,0,0,0,0,0,0,1,5,0,false
0.9.6,3,1,0,0,0,0,1,1,168,1,1,0,false
0.9.0,1,1,0,0,0,0,6,0,0,1,6,0,false
0.9.6,4,1,0,0,0,0,0,2,185,3,10,0,false
0.9.6,3,1,0,0,0,1,0,0,168,3,5,0,false
0.9.0,26,14,7,1,1,6,0,0,45,3,6,2,false
0.9.0,3,1,0,0,0,1,0,0,37,1,2,0,false
0.9.6,3,1,0,0,0,1,0,0,185,2,5,0,false
0.9.6,3,1,0,0,0,1,0,0,185,4,13,0,true
0.9.0,14,3,2,1,1,1,0,8,0,1,8,0,false
0.9.6,3,1,0,0,0,1,0,0,185,1,1,0,false
0.9.6,4,2,1,1,0,0,1,1,185,4,13,2,true
0.9.6,3,1,0,0,0,1,0,0,185,3,9,0,false
0.9.0,1,1,0,0,0,0,7,0,45,3,6,0,false
0.9.0,3,1,0,0,0,1,0,0,37,2,2,0,false
0.9.0,11,2,1,0,0,1,2,0,37,2,5,0,false
0.9.0,3,1,0,0,0,1,1,1,37,2,4,0,false
0.9.6,3,1,1,0,0,0,0,0,168,3,3,0,false
0.9.0,3,1,0,0,0,1,29,0,45,3,8,0,false
0.9.0,3,1,0,0,0,0,0,0,45,2,5,0,false
0.9.0,3,1,0,0,0,1,5,0,45,4,8,0,false
0.9.0,1,1,0,0,0,0,0,0,45,3,8,0,false
0.9.6,3,1,0,0,0,1,0,0,185,2,5,0,false
0.9.0,6,5,1,0,0,0,1,5,45,3,11,0,false
0.9.6,7,2,3,0,0,0,1,0,168,2,7,0,false
0.9.6,9,4,2,0,0,0,0,3,168,1,1,4,false
0.9.0,4,1,0,0,0,0,1,0,45,2,8,0,false
0.9.6,25,7,11,0,0,1,7,20,185,3,9,10,false
0.9.0,3,1,0,0,0,0,0,0,0,1,5,0,false
0.9.0,4,2,1,0,0,1,4,1,45,1,4,1,false
0.9.6,3,1,0,0,0,1,0,1,185,2,4,0,false
0.9.0,29,10,18,0,0,0,1,32,45,3,8,2,false
0.9.6,3,2,0,0,0,0,0,1,185,3,10,0,false
0.9.0,24,16,8,1,2,5,2,2,0,1,8,5,false
0.9.6,12,4,5,0,0,3,4,2,168,1,1,2,false
0.9.6,4,1,0,0,0,1,0,0,185,1,1,0,false
0.9.6,19,5,4,0,1,0,2,10,185,4,14,0,true
0.9.0,3,1,0,0,0,1,0,0,0,1,5,0,false
0.9.6,15,3,3,0,1,0,2,2,185,2,2,1,true
0.9.6,3,1,0,0,0,1,0,1,185,2,3,0,true
0.9.0,3,1,0,0,0,1,0,0,0,1,6,0,false
0.9.6,16,4,4,0,0,1,2,8,185,4,13,4,true
0.9.0,3,1,0,0,0,0,0,3,45,2,7,0,false
0.9.6,12,6,8,0,0,1,1,3,185,4,13,0,true
0.9.6,1,1,0,0,0,0,0,0,168,1,2,0,false
0.9.0,3,1,0,0,0,0,0,1,37,2,2,0,false
0.9.0,8,2,0,1,1,2,0,0,0,1,8,0,false
0.9.6,9,5,2,0,0,0,0,1,168,2,3,2,false
0.9.6,4,2,0,0,0,1,2,2,185,3,9,0,false
0.9.0,3,1,0,0,0,1,3,0,45,3,10,0,false
0.9.0,50,25,30,0,0,1,0,16,37,2,5,4,false
0.9.0,3,2,0,0,0,1,3,0,45,2,6,0,false
0.9.0,14,9,4,0,0,4,0,3,37,2,2,1,false
0.9.6,1,1,0,0,0,0,1,0,185,1,2,0,false
0.9.0,3,1,0,0,0,1,0,0,0,1,7,0,false
0.9.6,3,1,0,0,0,0,0,1,168,1,1,0,false
0.9.6,1,1,0,0,0,0,2,0,185,1,3,0,true
0.9.6,31,9,14,3,0,0,0,1,168,2,3,6,false
0.9.0,6,7,2,2,0,3,0,0,0,1,5,0,false
0.9.6,4,1,2,0,0,0,0,0,168,1,2,0,false
0.9.0,3,1,0,0,0,1,0,1,45,3,13,0,false
0.9.0,3,1,0,0,0,1,0,0,37,2,3,0,false
0.9.0,3,1,0,0,0,0,0,0,0,1,6,0,false
0.9.0,7,2,2,0,0,0,2,0,37,2,2,2,false
0.9.6,3,1,0,0,0,0,0,0,185,1,1,0,false
0.9.6,8,1,1,0,0,1,1,5,185,2,5,0,false
0.9.6,4,1,0,0,0,0,0,1,94,1,1,0,false
0.9.0,5,2,1,0,0,1,4,0,37,1,2,0,false
0.9.6,3,1,0,0,0,1,0,0,168,3,5,0,false
0.9.0,9,3,1,0,1,0,0,5,45,2,7,1,false
0.9.6,3,1,1,0,0,0,0,0,185,2,4,0,false
0.9.0,16,3,5,0,0,0,0,8,37,2,2,5,false
0.9.0,4,3,2,0,0,0,0,0,45,3,11,0,false
0.9.0,4,2,0,0,0,2,0,4,37,2,3,0,false
0.9.6,3,1,1,0,0,0,1,0,168,2,3,0,false
0.9.0,3,1,0,0,0,1,1,3,45,2,7,0,false
0.9.6,3,1,0,0,0,1,0,1,185,2,2,1,true
0.9.6,3,1,0,0,0,0,0,0,168,3,5,0,false
0.9.6,3,1,0,0,0,1,0,0,185,2,3,0,true
0.9.0,3,1,0,0,0,1,0,0,37,2,4,0,false
0.9.6,53,13,9,1,6,2,13,1,168,1,3,12,false
0.9.6,3,1,0,0,0,0,0,0,168,3,5,0,false
0.9.6,3,1,0,0,0,0,0,0,168,3,5,0,false
0.9.6,3,1,0,0,0,1,0,1,185,1,1,0,true
0.9.0,3,1,0,0,0,0,0,1,45,2,5,0,false
0.9.0,6,3,2,0,0,2,0,0,37,2,6,0,false
0.9.0,3,1,0,0,0,0,0,3,45,2,7,0,false
0.9.6,3,1,0,0,0,1,0,0,168,3,3,0,false
0.9.0,4,1,0,0,0,0,2,0,37,2,4,0,false
0.9.0,3,2,1,0,0,0,0,0,45,2,6,0,false
0.9.6,3,1,0,0,0,1,0,1,168,2,2,1,false
0.9.6,3,1,0,0,0,0,0,0,168,3,5,0,false
0.9.6,13,5,0,0,1,3,0,6,185,3,5,2,false
0.9.6,50,22,27,2,0,4,2,4,94,1,1,11,false
0.9.6,3,1,0,0,0,1,0,1,185,2,2,0,true
0.9.0,3,1,0,0,0,1,4,0,37,3,9,0,false
0.9.0,4,1,0,0,0,1,0,2,45,2,6,0,false
0.9.6,1,1,0,0,0,0,0,0,185,2,5,0,false
0.9.0,3,1,0,0,0,0,0,0,0,1,6,0,false
0.9.6,3,1,0,0,0,1,0,0,168,3,3,0,false
0.9.6,3,1,0,0,0,0,0,0,185,2,4,0,false
0.9.6,3,1,1,0,0,0,0,0,94,2,2,0,false
0.9.6,4,2,2,0,0,0,1,0,168,2,7,0,false
0.9.6,3,1,0,0,0,1,0,0,185,3,5,0,false
0.9.6,3,1,1,0,0,0,1,0,168,1,3,0,false
0.9.6,18,1,3,0,0,0,0,1,168,1,1,6,false
0.9.6,4,1,1,0,0,0,0,1,185,4,19,0,true
0.9.6,3,1,0,0,0,0,0,0,168,1,1,0,false
0.9.6,3,1,0,0,0,0,0,0,185,4,14,0,true
0.9.6,5,2,1,0,0,1,0,2,185,3,10,1,false
0.9.0,3,1,0,0,0,1,0,0,2,1,1,0,false
0.9.0,1,1,0,0,0,0,1,0,45,2,5,0,false
0.9.0,3,1,0,0,0,1,0,1,37,2,3,0,false
0.9.6,3,1,0,0,0,1,0,0,70,2,5,0,false
0.9.6,5,1,1,0,0,1,0,2,94,1,1,0,false
0.9.0,3,1,0,0,0,1,0,0,45,2,5,0,false
0.9.6,3,1,0,0,0,0,0,0,94,1,2,0,false
0.9.6,6,2,0,0,0,0,0,0,94,1,2,0,false
0.9.6,4,2,2,0,0,0,0,0,168,2,7,0,false
0.9.6,5,2,1,0,0,1,1,1,168,2,2,2,false
0.9.6,3,1,0,0,0,0,0,0,168,3,5,0,false
0.9.0,3,1,0,0,0,0,0,0,0,1,5,0,false
0.9.6,1,1,0,0,0,0,2,0,185,2,2,0,true
0.9.6,9,1,0,0,1,1,0,2,168,2,5,0,true
0.9.0,3,1,0,0,0,0,1,0,45,2,7,0,false
0.9.6,3,1,0,0,0,1,0,0,168,1,1,0,false
0.9.0,5,1,3,0,0,0,0,1,37,2,2,2,false
0.9.0,3,1,0,0,0,1,1,0,0,2,9,0,false
0.9.6,3,1,0,0,0,0,0,1,168,2,2,0,false
0.9.0,4,2,0,0,0,2,0,2,37,2,6,0,false
0.9.6,9,3,2,0,0,0,0,2,168,2,6,0,false
0.9.0,13,3,1,0,1,1,0,3,45,3,7,0,false
0.9.0,3,1,0,0,0,0,0,0,0,1,6,0,false
0.9.0,8,1,0,0,1,1,0,4,0,1,8,0,false
0.9.0,3,1,0,0,0,1,0,0,37,2,4,0,false
0.9.6,3,1,0,0,0,1,0,0,185,3,10,0,false
0.9.6,3,1,0,0,0,1,0,0,185,3,6,0,true
0.9.0,3,1,0,0,0,1,0,0,37,2,4,0,false
0.9.0,5,3,2,0,0,0,0,0,37,1,2,0,false
0.9.0,3,1,0,0,0,1,0,1,45,3,13,0,false
0.9.6,10,2,1,0,1,0,0,1,94,1,1,0,false
0.9.6,3,1,0,0,0,0,0,1,185,3,9,0,false
0.9.6,3,1,0,0,0,1,0,0,62,1,2,0,false
0.9.0,3,2,0,0,0,1,0,1,45,3,11,0,false
0.9.6,1,1,0,0,0,0,1,0,185,2,2,0,true
0.9.6,3,1,0,0,0,1,0,0,185,1,1,0,false
0.9.0,3,1,0,0,0,0,0,0,45,2,8,0,false
0.9.0,3,1,0,0,0,1,0,1,37,3,6,0,false
0.9.0,1,1,0,0,0,0,1,0,45,1,4,0,false
0.9.0,4,2,0,0,0,0,0,0,37,2,6,0,false
0.9.0,3,1,0,0,0,1,0,1,45,2,7,0,false
0.9.0,1,1,0,0,0,0,0,0,45,1,4,0,false
0.9.6,28,12,10,0,0,4,2,19,168,2,2,2,false
0.9.6,4,2,0,0,0,2,0,0,168,1,1,0,false
0.9.0,21,7,9,0,0,1,39,4,45,3,8,0,false
0.9.6,24,10,4,0,1,6,0,8,185,2,5,3,false
0.9.6,15,5,6,0,0,1,0,0,168,1,1,1,false
0.9.6,3,1,0,0,0,0,0,1,168,1,1,0,false
0.9.6,3,1,0,0,0,1,0,0,168,2,3,0,false
0.9.0,6,4,0,0,0,4,1,3,37,1,2,1,false
0.9.0,1,1,0,0,0,0,4,0,45,1,4,0,false
0.9.6,3,1,0,0,0,1,4,0,168,2,2,0,false
0.9.6,3,1,0,0,0,0,0,0,185,1,1,0,false
0.9.6,3,1,0,0,0,1,0,0,168,1,2,0,false
0.9.6,3,1,1,0,0,0,1,0,185,1,2,0,true
0.9.6,3,1,0,0,0,1,0,0,94,2,2,0,false
0.9.6,4,2,2,0,0,0,2,0,185,4,14,0,true
0.9.6,1,1,0,0,0,0,1,0,168,1,1,0,false
0.9.6,3,1,0,0,0,1,0,0,185,1,1,0,false
0.9.6,3,1,0,0,0,1,8,0,185,2,5,0,false
0.9.0,3,1,0,0,0,1,0,0,0,1,4,0,false
0.9.0,3,2,0,0,0,0,0,1,0,2,9,0,false
0.9.0,1,1,0,0,0,0,0,0,45,1,3,0,false
0.9.6,12,4,4,0,0,1,3,2,185,4,13,2,true
0.9.0,1,1,0,0,0,0,2,0,45,3,8,0,false
0.9.6,3,2,0,0,0,0,0,1,94,2,2,0,false
0.9.6,3,1,0,0,0,1,1,0,168,1,1,0,false
0.9.6,6,1,2,0,0,1,1,2,185,1,1,0,false
0.9.0,14,5,0,0,0,4,2,0,37,2,3,0,false
0.9.0,1,1,0,0,0,0,1,0,37,2,2,0,false
0.9.0,7,6,2,0,0,1,5,2,45,3,10,0,false
0.9.6,3,1,1,0,0,0,0,0,185,1,1,0,false
0.9.6,3,1,0,0,0,1,0,0,168,3,4,0,false
0.9.6,3,1,0,0,0,0,0,1,168,1,1,0,false
0.9.0,3,1,0,0,0,1,0,0,37,3,6,0,false
0.9.0,3,2,0,1,0,1,0,2,0,1,5,0,false
0.9.6,5,1,1,0,0,0,0,0,168,2,5,0,false
0.9.6,3,1,0,0,0,1,0,1,168,2,2,0,false
0.9.0,3,1,0,0,0,1,0,0,45,3,7,0,false
0.9.6,2,1,0,0,0,0,0,0,168,1,1,0,false
0.9.0,13,5,2,0,0,3,2,2,0,1,8,0,false
0.9.6,3,2,0,0,0,1,2,0,168,2,7,0,false
0.9.6,4,4,0,1,0,2,1,0,94,1,1,0,false
0.9.6,17,9,7,0,0,1,0,1,185,3,4,1,false
0.9.6,3,1,0,0,0,0,0,0,168,3,5,0,false
0.9.6,3,1,0,0,0,1,2,1,168,2,2,0,false
0.9.0,3,1,0,0,0,0,1,1,45,3,5,0,false
0.9.0,3,1,0,0,0,1,0,1,0,1,4,0,false
0.9.0,3,2,0,0,0,0,1,4,0,1,6,0,false
0.9.6,3,1,0,0,0,1,0,0,185,2,5,0,false
0.9.6,3,1,0,0,0,1,0,0,185,2,5,0,false
0.9.6,3,1,0,0,0,1,1,0,185,1,3,0,true
0.9.0,5,2,2,0,0,0,0,2,37,1,2,0,false
0.9.6,5,3,1,0,0,0,1,1,185,4,19,0,true
0.9.0,2,1,0,0,0,0,0,0,37,2,4,0,false
0.9.0,3,1,0,0,0,1,1,0,0,1,5,0,false
0.9.0,8,3,3,0,0,1,3,2,37,3,6,1,false
0.9.6,3,1,0,0,0,1,0,0,185,1,1,0,false
0.9.6,5,3,0,0,0,3,0,2,168,2,2,0,false
0.9.0,3,1,0,0,0,0,2,0,37,2,3,0,false
0.9.6,15,12,7,0,0,1,0,1,168,1,2,2,false
0.9.0,4,1,1,0,0,0,0,1,45,3,11,0,false
0.9.6,5,1,2,0,0,0,1,0,185,1,1,0,false
0.9.6,3,1,0,0,0,1,0,0,185,2,2,0,false
0.9.0,4,2,1,1,0,0,2,0,37,2,3,1,false
0.9.0,3,1,0,0,0,1,0,0,45,1,4,0,false
0.9.6,3,1,0,0,0,1,0,0,185,2,2,0,true
0.9.6,3,1,0,0,0,0,0,0,185,2,4,0,false
0.9.6,22,10,7,0,0,5,1,0,168,2,7,3,false
0.9.0,3,1,0,0,0,1,0,2,45,3,13,0,false
0.9.0,3,1,0,0,0,0,0,0,45,3,7,0,false
0.9.0,1,1,0,0,0,0,1,0,45,3,8,0,false
0.9.6,6,5,1,0,0,0,1,4,185,4,19,1,true
0.9.6,3,2,0,0,0,1,0,0,185,4,14,0,true
0.9.0,6,1,0,0,0,0,0,1,45,3,13,0,false
0.9.0,2,1,0,0,0,0,0,0,45,3,6,0,false
0.9.0,3,1,0,0,0,1,0,0,0,1,7,0,false
0.9.6,11,4,1,0,1,2,0,2,185,4,19,0,true
0.9.6,3,1,0,0,0,0,0,0,185,2,4,0,false
0.9.6,4,1,0,0,0,0,0,1,94,1,1,0,false
0.9.0,5,3,2,0,0,1,0,1,0,1,8,0,false
0.9.0,6,3,1,0,0,0,0,3,45,1,4,2,false
0.9.6,3,1,0,0,0,1,0,0,168,2,2,0,false
0.9.0,4,1,0,0,0,0,0,2,37,2,4,0,false
0.9.6,8,1,2,0,0,1,1,3,185,2,3,4,true
0.9.6,15,7,3,0,0,1,2,2,185,1,3,1,true
0.9.0,1,1,0,0,0,0,1,0,45,3,8,0,false
0.9.6,4,1,2,0,0,0,1,0,185,4,16,0,false
0.9.6,3,1,0,0,0,1,0,1,185,1,1,0,false
0.9.6,8,2,0,0,1,1,0,2,185,2,2,1,true
0.9.6,2,1,0,0,0,0,0,0,185,2,2,0,false
0.9.6,3,1,0,0,0,0,0,0,168,3,5,0,false
0.9.0,3,1,0,0,0,0,0,0,0,1,4,0,false
0.9.6,13,4,5,1,0,4,0,0,185,4,7,6,false
0.9.0,20,10,5,0,0,1,9,8,45,3,10,3,false
0.9.0,5,2,1,0,0,1,0,0,0,1,4,1,false
0.9.6,3,1,0,0,0,1,0,0,168,3,5,0,false
0.9.0,3,1,0,0,0,1,0,0,0,1,4,0,false
0.9.6,8,2,0,0,1,2,0,0,168,1,1,0,false
0.9.6,3,1,0,0,0,0,0,1,185,2,4,0,false
0.9.6,1,1,0,0,0,0,0,0,185,2,2,0,false
0.9.6,6,2,3,0,0,0,0,1,185,2,3,0,true
0.9.0,3,1,0,0,0,0,0,0,45,2,5,0,false
0.9.0,4,3,0,0,0,2,0,1,45,3,8,0,false
0.9.0,4,2,0,0,0,2,0,0,45,3,6,0,false
0.9.0,3,1,0,0,0,0,0,0,0,1,6,0,false
0.9.0,3,1,0,0,0,0,0,0,0,1,5,0,false
0.9.0,3,1,0,0,0,0,6,0,45,2,5,0,false
0.9.0,5,2,1,0,0,2,0,0,37,1,2,1,false
0.9.6,3,1,0,0,0,1,3,1,94,4,7,0,false
0.9.0,3,2,0,0,0,1,3,1,45,3,13,0,false
0.9.6,6,2,2,1,0,2,0,1,70,2,10,0,false
0.9.0,3,1,0,0,0,1,0,0,45,2,5,0,false
0.9.0,4,1,0,0,0,1,0,0,45,2,5,0,false
0.9.0,1,1,0,0,0,0,2,0,45,3,8,0,false
0.9.0,3,1,0,0,0,1,0,0,0,1,4,0,false
0.9.6,10,4,2,0,0,4,0,3,168,2,7,7,false
0.9.0,3,2,0,0,0,1,0,0,0,1,5,0,false
0.9.6,4,2,0,0,0,2,10,1,185,2,2,0,false
0.9.6,3,1,0,0,0,1,0,0,185,2,5,0,false
0.9.0,4,3,0,0,0,1,0,1,0,1,5,0,false
0.9.6,11,5,2,0,0,0,2,0,185,3,5,0,true
0.9.0,11,3,0,0,0,0,0,1,37,3,6,2,false
0.9.0,3,1,0,0,0,1,0,1,45,1,4,0,false
0.9.6,9,5,5,0,0,3,0,1,185,3,10,0,true
0.9.6,14,1,2,0,0,0,1,0,185,2,2,12,false
0.9.0,8,2,0,0,1,1,0,2,45,3,7,1,false
0.9.0,5,1,1,0,0,1,0,2,45,2,7,0,false
0.9.0,3,1,0,0,0,1,0,0,37,2,2,0,false
0.9.6,3,1,0,0,0,1,0,0,185,1,1,0,false
0.9.6,23,6,11,4,0,2,2,3,185,2,5,4,false
0.9.6,1,1,0,0,0,0,0,0,185,2,5,0,false
0.9.0,11,3,2,0,0,0,1,4,37,1,2,1,false
0.9.6,3,1,0,0,0,0,0,0,185,1,1,0,false
0.9.6,2,1,0,0,0,0,0,0,168,2,2,0,false
0.9.0,32,8,8,0,1,1,5,19,45,2,6,5,false
0.9.0,3,1,0,0,0,1,0,0,0,1,4,0,false
0.9.6,3,1,0,0,0,1,0,1,168,2,3,0,false
0.9.0,8,2,0,0,1,1,0,2,45,3,7,1,false
0.9.6,3,1,0,0,0,0,0,0,185,2,5,0,false
0.9.6,15,2,2,0,1,1,0,4,94,1,1,2,false
0.9.0,3,1,1,0,0,0,1,0,0,1,4,0,false
0.9.0,3,1,0,0,0,1,0,0,45,3,11,0,false
0.9.6,4,1,1,0,0,0,1,1,185,4,19,0,true
0.9.0,34,12,0,0,1,1,0,8,45,2,8,0,false
0.9.6,10,4,3,0,0,1,1,0,94,2,2,0,false
0.9.6,3,1,0,0,0,0,0,0,185,2,5,0,false
0.9.6,4,2,0,0,0,2,3,2,185,4,19,0,true
0.9.0,4,2,1,0,0,0,8,0,45,4,8,0,false
0.9.6,11,2,3,0,1,0,0,5,168,1,3,0,false
0.9.0,4,1,0,0,0,0,0,1,45,4,9,0,false
0.9.6,3,1,0,0,0,1,0,0,168,3,5,0,false
0.9.6,5,1,1,0,0,0,0,2,185,3,10,0,false
0.9.6,5,7,1,0,0,1,3,3,185,2,8,0,false
0.9.0,9,5,2,0,0,0,1,2,37,2,6,1,false
0.9.6,3,1,0,0,0,1,0,1,185,3,10,0,false
0.9.6,3,1,0,0,0,1,0,0,168,1,2,0,false
0.9.0,9,3,0,0,1,1,0,2,45,2,5,1,false
0.9.6,3,1,0,0,0,1,0,0,185,1,1,0,false
0.9.6,3,1,0,0,0,1,0,1,168,3,4,0,false
0.9.0,3,1,0,0,0,1,0,1,37,2,4,0,false
0.9.0,3,1,0,0,0,0,0,0,0,1,4,0,false
0.9.6,4,1,0,0,0,1,0,0,185,1,1,0,false
0.9.0,3,1,0,0,0,1,6,0,45,2,5,0,false
0.9.0,5,3,0,0,0,3,9,3,45,3,8,1,false
0.9.0,13,2,3,0,0,0,0,3,37,2,3,3,false
0.9.0,4,2,1,0,0,1,0,0,37,1,2,1,false
0.9.6,9,3,1,0,1,2,2,1,168,3,6,1,false
0.9.6,1,1,0,0,0,0,0,0,185,2,5,0,false
0.9.0,3,1,0,0,0,1,1,0,45,2,7,0,false
0.9.6,3,1,0,0,0,0,0,0,185,2,5,0,false
0.9.6,3,1,0,0,0,1,0,0,185,1,1,0,false
0.9.6,3,1,0,0,0,1,1,0,185,4,16,0,false
0.9.6,3,1,0,0,0,0,0,1,168,2,2,1,false
0.9.0,4,2,0,1,0,1,0,2,0,1,8,0,false
0.9.0,3,2,0,0,0,1,2,0,45,3,11,0,false
0.9.0,10,3,0,0,0,3,1,0,45,1,4,3,false
0.9.0,4,2,0,1,0,1,0,2,0,1,8,0,false
0.9.6,3,1,1,0,0,0,0,0,168,3,3,0,false
0.9.0,10,2,1,0,1,0,0,4,0,1,8,0,false
0.9.6,3,1,0,0,0,1,3,0,185,2,5,0,false
0.9.6,4,2,2,0,0,0,0,1,185,2,2,1,false
0.9.0,11,2,6,0,0,0,1,1,37,2,2,2,false
0.9.6,14,3,2,0,1,1,0,3,185,2,4,0,false
0.9.0,5,2,1,0,0,0,0,1,37,2,6,0,false
0.9.6,3,1,1,0,0,0,0,0,168,2,5,0,false
0.9.0,3,1,0,0,0,0,0,0,0,1,4,0,false
0.9.6,3,1,0,0,0,1,1,0,185,4,19,0,true
0.9.0,1,1,0,0,0,0,1,0,45,2,5,0,false
0.9.0,3,1,0,0,0,1,1,0,45,3,11,0,false
0.9.6,20,7,3,2,2,5,12,6,185,2,4,4,false
0.9.0,5,2,2,0,0,0,0,4,37,2,2,3,false
0.9.0,3,2,0,0,0,1,0,1,37,2,4,0,false
0.9.6,2,1,0,0,0,0,2,0,185,3,6,0,true
0.9.6,3,1,0,0,0,1,1,0,185,3,6,0,true
0.9.6,3,1,0,0,0,0,0,0,168,2,2,0,false
0.9.0,4,1,1,0,0,0,1,0,37,1,2,0,false
0.9.6,7,3,2,0,0,2,0,0,94,1,1,0,false
0.9.0,4,2,2,0,0,0,1,0,45,1,7,0,false
0.9.0,4,1,0,0,0,0,1,1,45,3,13,0,false
0.9.6,3,1,0,0,0,1,0,1,168,2,2,0,false
0.9.0,3,1,0,0,0,1,1,0,45,2,6,0,false
0.9.0,22,6,7,4,1,3,1,5,45,2,5,4,false
0.9.6,9,4,2,0,0,0,0,1,168,1,2,0,false
0.9.6,3,1,1,0,0,0,0,0,168,1,1,0,false
0.9.6,46,13,13,1,2,0,2,2,168,1,1,7,false
0.9.6,3,1,0,0,0,1,0,1,185,2,3,0,true
0.9.6,3,1,0,0,0,1,0,0,185,3,6,0,true
0.9.0,3,1,0,0,0,0,0,0,45,2,5,0,false
0.9.0,3,1,1,0,0,0,2,0,45,3,10,0,false
0.9.0,3,1,0,0,0,1,0,1,45,3,6,0,false
0.9.6,3,1,0,0,0,0,0,0,185,2,5,0,false
0.9.0,3,1,0,1,0,1,0,2,45,2,6,0,false
0.9.6,2,1,0,0,0,0,0,0,185,3,5,0,false
0.9.6,15,2,3,0,0,1,1,2,168,2,5,2,true
0.9.6,3,1,0,0,0,1,0,0,94,3,4,0,false
0.9.0,3,1,0,0,0,1,0,0,45,1,3,0,false
0.9.6,3,1,0,0,0,1,0,0,94,2,2,0,false
0.9.0,6,7,0,0,0,1,1,4,45,3,10,1,false
0.9.6,4,1,0,0,0,0,0,2,168,3,4,0,false
0.9.6,3,1,0,0,0,1,0,0,185,2,5,0,false
0.9.0,3,1,0,0,0,0,0,0,0,1,4,0,false
0.9.6,62,14,23,1,4,0,3,5,185,4,19,10,true
0.9.0,10,4,2,0,0,3,0,0,45,2,6,0,false
0.9.0,4,1,2,0,0,0,1,0,45,3,10,0,false
0.9.6,3,1,0,0,0,0,0,0,168,3,5,0,false
0.9.6,3,1,0,0,0,1,0,1,94,4,7,0,false
0.9.0,7,3,2,0,0,1,2,1,37,3,9,0,false
0.9.6,4,1,1,0,0,0,0,0,94,1,2,0,false
0.9.6,4,2,1,0,0,0,0,0,94,2,2,0,false
0.9.0,33,8,15,3,0,1,0,6,45,2,6,7,false
0.9.6,3,1,0,0,0,0,0,0,168,3,5,0,false
0.9.0,3,1,0,0,0,1,0,0,45,2,6,0,false
0.9.6,3,1,0,0,0,0,0,1,168,2,2,0,false
0.9.6,1,1,0,0,0,0,0,0,185,2,5,0,false
0.9.6,28,14,4,0,1,0,0,8,185,4,19,2,true
0.9.6,5,2,0,0,0,2,0,1,185,4,19,0,true
0.9.6,5,2,3,0,0,1,4,0,185,2,2,0,false
0.9.0,3,1,0,0,0,1,0,0,37,1,2,0,false
0.9.0,3,2,0,0,0,1,3,1,45,3,10,0,false
0.9.0,3,1,0,0,0,1,0,1,45,2,7,0,false
0.9.6,3,1,0,0,0,1,0,0,185,2,2,0,true
0.9.6,25,7,4,0,1,2,2,2,185,4,16,1,false
0.9.6,5,1,0,0,0,0,0,0,185,1,1,0,false
0.9.6,14,6,2,0,0,4,2,0,185,3,4,2,false
0.9.0,14,4,2,0,1,2,0,0,37,3,9,0,false
0.9.6,3,1,0,0,0,1,0,1,185,3,10,0,false
0.9.0,3,1,0,0,0,1,0,1,45,2,7,0,false
0.9.0,3,1,0,0,0,1,0,0,0,1,4,0,false
0.9.6,4,1,2,0,0,0,1,0,185,2,5,0,false
0.9.6,3,1,0,0,0,1,3,0,185,2,5,0,false
0.9.0,4,2,2,0,0,0,0,0,37,1,2,0,false
0.9.0,10,7,7,2,0,3,0,2,37,2,2,0,false
0.9.0,3,1,0,0,0,1,0,0,37,2,2,0,false
0.9.0,3,2,0,0,0,1,2,0,37,2,6,0,false
0.9.6,3,1,0,0,0,1,0,0,185,1,1,0,false
0.9.6,5,4,2,0,0,1,0,0,168,1,1,0,false
0.9.6,1,1,0,0,0,0,0,0,185,2,2,0,false
0.9.0,3,1,0,0,0,0,1,1,45,2,6,0,false
0.9.0,3,1,0,0,0,1,0,0,37,2,4,0,false
0.9.0,3,1,1,0,0,0,2,0,0,2,9,0,false
0.9.0,15,6,8,3,0,1,3,7,45,4,9,1,false
0.9.6,3,1,0,0,0,1,0,0,185,2,5,0,false
0.9.6,3,1,0,0,0,1,0,0,168,2,2,0,false
0.9.0,3,1,0,0,0,1,0,0,37,2,2,0,false
0.9.0,3,1,0,0,0,1,0,1,37,2,4,0,false
0.9.6,5,1,1,0,0,0,1,4,168,1,3,0,false
0.9.0,3,1,0,0,0,1,0,0,45,3,13,0,false
0.9.6,9,3,0,0,1,1,0,2,185,1,1,1,false
0.9.0,3,1,0,0,0,1,4,1,45,2,7,0,false
0.9.6,4,4,1,0,0,0,3,2,168,1,1,4,false
0.9.0,4,4,1,0,0,1,2,4,37,2,4,4,false
0.9.0,1,1,0,0,0,0,3,0,45,1,4,0,false
0.9.6,3,2,0,0,0,1,3,0,185,4,14,0,true
0.9.0,3,1,1,0,0,0,4,0,37,2,6,0,false
0.9.0,6,2,1,0,0,2,1,3,45,2,6,2,false
0.9.6,3,1,0,0,0,1,13,2,185,3,6,0,true
0.9.6,3,1,0,0,0,1,0,0,168,3,5,0,false
0.9.6,3,1,0,0,0,0,0,0,185,2,5,0,false
0.9.0,3,1,0,0,0,1,0,0,45,1,7,0,false
0.9.6,3,1,0,0,0,1,1,1,168,2,3,0,false
0.9.0,1,1,0,0,0,0,1,0,37,2,2,0,false
0.9.6,1,1,0,0,0,0,1,0,168,1,1,0,false
0.9.0,34,16,11,0,0,0,1,0,37,2,8,1,false
0.9.0,3,1,0,0,0,1,0,0,45,2,7,0,false
0.9.6,3,1,0,0,0,0,0,1,168,2,2,0,false
0.9.6,3,1,0,0,0,1,1,0,168,2,7,0,false
0.9.0,3,1,0,0,0,1,0,0,37,2,4,0,false
0.9.6,1,1,0,0,0,0,1,0,168,1,1,0,false
0.9.6,3,1,0,0,0,1,0,0,168,1,1,0,false
0.9.0,1,1,0,0,0,0,3,0,45,2,6,0,false
0.9.0,3,1,0,0,0,0,0,0,45,2,5,0,false
0.9.0,1,1,0,0,0,0,2,0,45,3,8,0,false
0.9.6,3,1,0,0,0,1,2,0,185,4,19,0,true
0.9.0,4,1,0,0,0,0,0,1,0,1,8,0,false
0.9.0,3,1,0,0,0,1,0,0,37,1,2,0,false
0.9.0,3,1,0,0,0,1,0,0,45,2,4,0,false
0.9.6,4,2,0,0,0,1,0,0,94,1,1,0,false
0.9.6,4,1,2,0,0,0,0,1,185,4,14,0,true
0.9.6,7,2,1,0,0,0,1,2,185,4,19,0,true
0.9.0,4,2,0,0,0,1,0,2,0,1,8,0,false
0.9.6,5,2,1,1,0,2,0,1,168,1,1,0,true
0.9.0,49,14,20,0,1,4,0,11,37,3,9,4,false
0.9.0,6,3,1,0,0,1,1,2,37,2,3,0,false
0.9.0,4,2,1,0,0,0,0,1,27,1,2,0,false
0.9.6,3,2,0,0,0,1,0,0,185,1,1,0,false
0.9.0,2,1,0,0,0,0,0,0,45,2,5,0,false
0.9.6,25,12,8,0,0,1,1,3,185,1,2,10,false
0.9.6,1,1,0,0,0,0,0,0,185,2,4,0,false
0.9.6,54,14,15,2,3,1,4,30,185,3,6,12,true
0.9.0,3,1,0,0,0,1,49,0,45,3,10,0,false
0.9.6,3,1,0,0,0,1,0,0,185,2,5,0,false
0.9.0,3,1,0,0,0,0,1,1,37,2,4,0,false
0.9.0,1,1,0,0,0,0,0,0,45,3,8,0,false
0.9.0,13,7,6,0,0,0,0,3,37,1,2,1,false
0.9.0,3,1,0,0,0,1,0,0,0,1,4,0,false
0.9.0,4,2,2,0,0,1,0,1,0,1,7,0,false
0.9.0,3,1,0,0,0,1,0,1,45,2,5,0,false
0.9.6,16,7,3,0,1,2,0,2,185,1,3,3,true
0.9.0,25,9,5,0,1,1,0,6,37,1,2,1,false
0.9.6,19,14,6,0,0,1,48,9,168,2,7,3,false
0.9.0,21,8,6,0,0,0,0,4,37,2,3,0,false
0.9.0,3,1,1,0,0,0,0,0,45,2,6,0,false
0.9.6,13,5,4,1,1,2,2,2,185,1,1,3,false
0.9.6,3,1,0,0,0,0,0,2,185,2,3,0,true
0.9.6,3,1,0,0,0,1,0,0,185,1,1,0,false
0.9.0,30,10,7,0,1,2,4,3,45,2,6,5,false
0.9.0,3,1,1,0,0,0,0,0,37,2,2,0,false
0.9.6,1,1,0,0,0,0,0,0,185,2,5,0,false
0.9.6,3,1,0,0,0,1,0,0,168,2,5,0,false
0.9.6,18,9,5,0,1,2,0,4,94,1,1,3,false
0.9.0,5,1,3,0,0,0,0,0,45,1,4,0,false
0.9.0,3,1,0,0,0,1,0,0,0,1,8,0,false
0.9.6,3,1,0,0,0,1,0,1,185,2,3,0,true
0.9.0,3,1,0,0,0,1,0,0,45,2,4,0,false
0.9.0,3,1,0,0,0,1,1,0,0,2,9,0,false
0.9.0,1,1,0,0,0,0,0,0,45,3,6,0,false
0.9.6,6,1,1,1,0,1,0,0,20,1,1,0,false
0.9.6,4,3,1,0,0,2,0,0,185,1,3,2,true
0.9.6,3,1,1,0,0,0,0,0,168,3,3,0,false
0.9.0,5,2,1,0,0,1,1,1,37,1,2,2,false
0.9.6,4,1,1,0,0,1,0,0,168,2,7,0,false
0.9.6,57,33,13,1,0,0,1,28,185,4,13,12,true
0.9.6,3,1,0,0,0,1,0,0,185,4,16,0,false
0.9.0,3,1,0,0,0,1,0,0,37,2,3,0,false
0.9.6,3,1,0,0,0,0,0,0,185,1,1,0,false
0.9.0,4,2,1,0,0,1,11,3,0,1,8,0,false
0.9.0,1,1,0,0,0,0,3,0,45,2,5,0,false
0.9.6,3,1,0,0,0,1,0,0,185,1,1,0,false
0.9.0,3,2,0,0,0,0,1,1,45,2,6,0,false
0.9.0,3,1,0,0,0,1,4,0,45,3,10,0,false
0.9.0,3,1,0,0,0,1,0,0,0,1,6,0,false
0.9.0,1,1,0,0,0,0,2,0,45,2,5,0,false
0.9.0,3,1,0,0,0,1,0,0,0,1,4,0,false
0.9.6,36,10,12,2,0,0,1,2,168,2,2,9,false
0.9.6,6,2,4,0,0,1,5,0,185,4,19,0,true
0.9.0,7,2,4,0,0,0,0,0,0,1,5,0,false
0.9.6,1,1,0,0,0,0,0,0,185,2,5,0,false
0.9.0,3,1,0,0,0,1,0,0,45,2,4,0,false
0.9.0,3,1,0,0,0,1,0,5,45,2,7,0,false
0.9.0,5,2,1,1,0,0,0,2,45,2,4,1,false
0.9.0,3,1,0,0,0,1,0,0,0,1,8,0,false
0.9.6,14,6,5,0,0,1,0,1,0,1,1,0,false
0.9.6,3,1,0,0,0,1,4,1,185,2,3,0,true
0.9.6,30,10,7,0,1,2,3,3,185,1,1,5,true
0.9.0,3,2,0,0,0,1,13,0,45,2,6,0,false
0.9.6,12,10,1,0,0,2,2,8,185,4,14,2,true
0.9.6,3,1,1,0,0,0,0,0,185,2,4,0,false
0.9.6,4,2,0,0,0,2,2,0,185,3,6,0,true
0.9.0,3,1,0,0,0,0,0,1,37,2,6,0,false
0.9.0,1,1,0,0,0,0,2,0,45,3,8,0,false
0.9.6,3,1,0,0,0,1,0,0,185,4,14,0,true
0.9.6,8,3,4,0,0,0,1,9,185,3,9,2,false
0.9.0,3,1,0,0,0,1,5,0,45,2,6,0,false
0.9.6,3,1,0,0,0,1,4,0,168,2,6,0,false
0.9.0,6,4,1,0,0,0,0,2,45,2,5,1,false
0.9.6,7,3,1,0,0,3,0,3,185,4,19,0,true
0.9.0,3,1,1,0,0,0,0,0,45,1,3,0,false
0.9.0,3,1,0,0,0,1,2,0,0,1,7,0,false
0.9.6,3,2,1,0,0,0,1,1,185,1,1,0,false
0.9.6,11,2,5,0,0,0,0,4,168,2,2,2,false
0.9.0,3,1,0,0,0,0,0,0,0,1,6,0,false
0.9.0,3,1,1,0,0,0,0,0,37,2,2,0,false
0.9.6,3,1,0,0,0,1,0,0,168,2,2,0,false
0.9.6,5,1,0,0,0,0,2,0,185,3,4,0,false
0.9.0,5,1,1,0,0,0,1,0,37,2,4,1,false
0.9.6,14,3,7,0,0,1,0,1,94,2,2,1,false
0.9.6,3,1,1,0,0,0,0,0,94,1,1,0,false
0.9.0,7,1,2,0,0,1,0,0,0,1,6,0,false
0.9.0,4,3,1,0,0,2,0,1,0,2,6,0,false
0.9.6,1,1,0,0,0,0,12,0,185,2,2,0,true
0.9.6,3,1,1,0,0,0,0,0,168,2,2,0,false
0.9.6,3,1,0,0,0,1,0,0,168,3,4,0,false
0.9.6,3,1,0,0,0,1,0,0,185,3,5,0,false
0.9.0,6,2,4,0,0,0,2,1,45,3,13,1,false
0.9.6,3,1,0,0,0,0,0,0,185,2,5,0,false
0.9.6,4,2,0,0,0,1,0,0,185,1,1,0,false
0.9.0,5,3,1,0,0,2,0,1,0,1,4,1,false
0.9.0,2,1,0,0,0,0,0,0,45,2,6,0,false
0.9.6,3,1,1,0,0,0,1,0,168,3,3,0,false
0.9.6,3,1,0,0,0,1,0,0,185,2,3,0,true
0.9.6,3,1,0,0,0,1,0,0,185,1,1,0,false
0.9.0,3,1,0,0,0,1,0,0,37,2,3,0,false
0.9.0,4,2,0,0,0,1,0,0,45,2,5,0,false
0.9.6,9,3,5,0,0,1,1,1,168,2,7,0,false
0.9.6,2,1,0,0,0,0,0,0,168,1,2,0,false
0.9.0,3,1,0,0,0,1,0,0,45,3,11,0,false
0.9.0,3,1,0,0,0,1,0,0,45,1,3,0,false
0.9.0,3,1,0,0,0,0,0,1,37,2,2,0,false
0.9.6,3,1,0,0,0,0,0,0,185,4,14,0,true
0.9.6,3,1,1,0,0,0,0,0,185,2,4,0,false
0.9.6,3,1,0,0,0,1,0,0,168,2,7,0,false
0.9.6,14,5,7,3,0,1,0,1,168,1,1,1,false
0.9.6,3,1,0,0,0,1,0,1,185,3,3,0,false
0.9.6,3,1,0,0,0,0,0,0,185,1,1,0,false
0.9.6,20,9,8,0,0,2,0,13,185,4,19,3,true
0.9.6,3,1,0,0,0,1,3,0,185,2,8,1,false
0.9.6,3,1,0,0,0,0,0,0,185,2,5,0,false
0.9.6,3,1,0,0,0,1,0,0,185,2,2,0,false
0.9.0,2,1,0,0,0,0,0,0,37,2,4,0,false
0.9.0,3,1,0,0,0,1,0,0,0,1,6,0,false
0.9.0,3,1,0,0,0,1,0,0,45,2,5,0,false
0.9.0,3,1,0,0,0,0,0,1,45,2,4,0,false
0.9.6,6,7,2,0,0,1,5,2,94,2,2,2,false
0.9.0,11,1,3,0,1,1,0,4,0,1,5,0,false
0.9.6,3,1,0,0,0,0,0,0,168,3,5,0,false
0.9.0,3,1,1,0,0,0,1,0,37,1,2,0,false
0.9.6,16,5,1,0,1,1,1,6,185,4,14,0,true
0.9.6,3,1,0,0,0,0,0,0,185,2,5,0,false
0.9.6,7,1,0,0,0,0,1,5,185,4,13,0,true
0.9.0,31,10,7,0,3,1,0,3,37,2,3,0,false
0.9.0,3,1,0,0,0,1,1,0,37,2,6,0,false
0.9.6,3,1,0,0,0,1,0,0,185,2,3,0,true
0.9.0,16,4,4,0,0,1,2,10,45,3,8,4,false
0.9.6,14,10,2,0,0,2,1,14,185,4,7,4,false
0.9.0,3,1,0,0,0,1,2,0,0,1,7,0,false
0.9.0,3,1,0,0,0,1,5,1,45,2,6,1,false
0.9.0,4,2,0,0,0,2,16,2,45,2,8,0,false
0.9.6,3,1,0,0,0,0,0,1,168,2,3,0,false
0.9.6,3,1,0,0,0,1,0,0,70,2,5,0,false
0.9.6,3,1,0,0,0,1,0,0,185,2,4,0,false
0.9.0,13,3,1,0,1,1,0,3,45,3,7,0,false
0.9.6,3,1,0,0,0,1,0,1,168,2,2,0,false
0.9.0,1,1,0,0,0,0,1,0,0,1,4,0,false
0.9.6,3,1,0,0,0,0,1,1,185,4,14,0,true
0.9.0,10,3,4,0,0,1,0,0,45,2,5,2,false
0.9.0,3,1,0,0,0,1,0,0,45,3,13,0,false
0.9.0,16,5,3,1,0,1,0,1,45,1,3,0,false
0.9.6,16,5,1,0,1,1,1,6,185,4,14,0,true
0.9.0,3,1,0,0,0,1,0,0,37,3,6,0,false
0.9.0,1,1,0,0,0,0,0,0,45,3,8,0,false
0.9.6,3,1,0,0,0,0,0,0,168,3,5,0,false
0.9.6,7,2,2,0,0,0,2,0,168,2,2,2,false
0.9.0,2,1,0,0,0,0,1,0,0,1,5,0,false
0.9.6,3,1,0,0,0,1,0,1,168,2,3,0,false
0.9.6,3,1,0,0,0,1,2,0,185,1,2,0,false
0.9.6,33,13,9,0,0,5,1,2,185,2,5,2,false
0.9.0,3,1,0,0,0,1,0,2,45,2,7,0,false
0.9.0,3,1,0,0,0,1,0,0,37,2,2,0,false
0.9.6,8,4,1,0,0,0,2,1,168,1,1,1,true
0.9.0,8,2,0,0,1,0,1,1,45,2,5,1,false
0.9.6,2,1,0,0,0,0,0,0,168,3,5,0,false
0.9.0,6,5,1,0,0,2,2,7,45,2,7,0,false
0.9.6,3,1,0,0,0,0,0,0,185,2,4,0,false
0.9.6,3,1,0,0,0,0,0,0,168,3,5,0,false
0.9.6,3,1,0,0,0,1,0,0,185,3,5,0,false
0.9.0,3,2,0,0,0,1,13,0,45,3,8,0,false
0.9.0,17,4,3,0,1,0,0,5,45,2,7,0,false
0.9.0,3,1,0,0,0,0,0,0,0,1,6,0,false
0.9.0,3,1,0,0,0,1,0,0,0,1,7,0,false
0.9.6,3,1,0,0,0,1,1,1,168,2,3,0,false
0.9.0,5,3,0,1,0,3,3,0,37,2,6,0,false
0.9.0,1,1,0,0,0,0,1,0,37,2,3,0,false
0.9.0,3,1,0,0,0,1,0,0,45,2,4,0,false
0.9.0,46,16,14,4,1,3,11,1,0,2,13,18,false
0.9.6,3,1,0,0,0,0,1,1,185,3,10,0,false
0.9.6,3,1,0,0,0,1,0,0,168,2,3,0,false
0.9.0,3,1,0,0,0,1,0,0,45,2,6,0,false
0.9.6,3,1,0,0,0,1,0,0,185,1,1,0,false
0.9.0,19,3,4,1,2,0,0,4,0,1,8,0,false
0.9.6,3,1,0,0,0,0,0,0,185,2,4,0,false
0.9.0,2,1,0,0,0,0,0,0,45,1,5,0,false
0.9.0,1,1,0,0,0,0,0,0,45,3,8,0,false
0.9.6,3,1,0,0,0,1,0,0,168,1,1,0,false
0.9.0,3,1,0,0,0,1,0,0,0,1,4,0,false
0.9.0,3,1,0,0,0,1,0,0,45,2,4,0,false
0.9.0,2,1,0,0,0,0,0,0,45,1,4,0,false
0.9.0,3,1,0,0,0,1,0,0,0,1,4,0,false
0.9.0,3,1,0,0,0,1,1,0,37,2,3,1,false
0.9.0,3,1,0,0,0,1,0,0,0,1,4,0,false
0.9.0,3,1,0,0,0,1,0,0,37,2,3,0,false
0.9.0,9,6,5,0,0,2,1,0,37,2,6,0,false
0.9.6,3,1,0,0,0,1,0,0,185,2,5,0,false
0.9.6,9,4,2,0,0,1,0,3,168,2,6,0,false
0.9.0,23,8,3,0,1,2,0,1,45,1,5,1,false
0.9.0,3,1,0,0,0,0,0,0,0,1,6,0,false
0.9.6,5,1,0,0,0,0,0,0,185,1,1,0,true
0.9.0,3,1,0,0,0,1,0,0,45,2,6,0,false
0.9.6,3,1,0,0,0,1,0,0,185,1,1,0,false
0.9.0,3,1,0,0,0,1,7,0,37,2,4,0,false
0.9.6,3,1,0,0,0,1,0,0,185,2,4,0,false
0.9.6,4,3,0,0,0,2,0,0,168,2,2,0,false
0.9.0,3,1,0,0,0,0,0,0,45,2,5,0,false
0.9.6,18,6,2,0,2,2,0,0,94,4,7,3,false
0.9.6,3,1,0,0,0,0,0,3,185,2,3,0,true
0.9.6,3,1,0,0,0,0,0,0,168,3,5,0,false
0.9.6,5,3,2,0,0,1,0,1,94,1,1,0,false
0.9.6,16,5,0,0,1,0,0,5,185,4,19,1,true
0.9.0,3,1,0,0,0,1,0,1,37,2,4,0,false
0.9.0,1,1,0,0,0,0,2,0,45,2,5,0,false
0.9.6,7,5,1,0,0,0,0,1,94,2,2,0,false
0.9.0,5,2,3,0,0,0,0,0,0,1,8,1,false
0.9.0,12,1,1,0,0,1,1,3,45,2,7,2,false
0.9.6,1,1,0,0,0,0,0,0,185,2,5,0,false
0.9.0,4,3,0,0,0,2,0,2,37,1,2,0,false
0.9.6,3,1,0,0,0,1,0,0,185,4,14,0,true
0.9.0,10,3,2,0,1,0,1,2,45,2,7,1,false
0.9.6,3,1,0,0,0,1,1,0,185,4,19,0,true
0.9.6,3,1,0,0,0,0,0,0,185,1,1,0,false
0.9.0,3,1,0,0,0,0,0,0,45,2,4,0,false
0.9.0,3,1,0,0,0,0,0,0,45,3,7,0,false
0.9.0,4,1,0,0,0,0,0,2,37,3,6,0,false
0.9.6,3,1,0,0,0,1,1,0,168,2,2,0,false
0.9.6,3,1,0,1,0,1,0,0,185,4,19,0,true
0.9.0,3,1,0,0,0,0,0,0,45,2,4,0,false
0.9.6,3,1,0,0,0,1,0,0,94,1,1,0,false
0.9.6,3,1,0,0,0,1,1,0,185,4,19,0,true
0.9.6,8,3,1,0,0,0,0,1,168,1,2,1,false
0.9.6,13,7,0,0,0,6,0,6,185,2,2,0,true
0.9.6,4,4,1,0,0,0,0,1,185,3,6,0,true
0.9.0,25,8,6,1,3,2,0,3,37,2,3,1,false
0.9.6,3,1,0,0,0,1,0,0,185,1,3,0,false
0.9.6,39,13,10,0,2,2,0,4,168,2,5,4,true
0.9.0,3,1,0,0,0,1,0,1,45,3,10,0,false
0.9.6,3,1,1,0,0,0,3,0,168,1,1,0,false
0.9.6,3,1,1,0,0,0,4,0,185,2,2,0,true
0.9.0,1,1,0,0,0,0,9,0,37,2,2,0,false
0.9.0,14,6,5,0,0,1,1,3,45,2,6,2,false
0.9.0,3,1,0,0,0,1,0,0,37,1,2,0,false
0.9.6,3,1,0,0,0,1,4,0,185,2,5,0,false
0.9.0,25,7,10,1,2,1,0,2,0,2,7,1,false
0.9.0,3,1,1,0,0,0,1,0,37,1,2,0,false
0.9.0,3,1,0,0,0,1,0,0,37,2,4,0,false
0.9.6,3,1,0,0,0,0,0,0,185,2,5,0,false
0.9.0,3,1,0,0,0,0,0,1,45,3,10,0,false
0.9.6,12,4,5,0,0,1,1,0,185,2,5,2,false
0.9.0,3,1,0,0,0,0,0,0,0,1,4,0,false
0.9.0,3,1,0,0,0,1,31,0,45,2,8,0,false
0.9.6,4,2,0,0,0,1,2,0,168,2,7,0,false
0.9.0,3,1,0,0,0,1,0,0,0,1,5,0,false
0.9.0,3,1,0,0,0,1,1,1,37,2,6,1,false
0.9.0,106,7,26,0,0,0,1,5,45,4,8,34,false
0.9.6,10,2,5,2,0,1,0,5,168,1,1,0,true
0.9.0,3,1,0,0,0,0,8,0,45,2,6,0,false
0.9.6,3,1,0,0,0,1,0,0,185,1,1,0,false
0.9.0,4,2,1,0,0,1,1,1,45,3,13,0,false
0.9.0,3,1,0,0,0,1,0,0,45,2,4,0,false
0.9.0,5,1,1,0,0,0,0,2,37,2,4,0,false
0.9.0,4,1,1,0,0,1,0,0,37,2,3,3,false
0.9.0,3,1,1,0,0,0,0,0,0,1,5,0,false
0.9.0,3,1,0,0,0,1,8,0,45,3,11,0,false
0.9.0,3,1,0,0,0,1,0,0,45,3,11,0,false
0.9.6,4,1,0,0,0,0,0,1,168,3,4,0,false
0.9.6,5,3,1,0,0,2,5,3,185,2,5,1,false
0.9.6,3,1,0,0,0,1,1,1,185,3,10,0,false
0.9.0,5,2,1,0,0,1,2,3,45,2,6,2,false
0.9.6,3,1,0,0,0,1,0,1,185,3,10,0,false
0.9.6,3,1,0,0,0,0,0,0,185,2,4,0,false
0.9.0,3,1,0,0,0,1,2,0,37,2,2,0,false
0.9.0,4,2,0,1,0,0,0,2,0,1,8,0,false
0.9.6,3,1,0,0,0,0,0,0,185,1,1,0,false
0.9.6,3,1,0,0,0,1,0,0,185,4,19,0,true
0.9.0,3,2,0,1,0,0,8,2,0,1,8,0,false
0.9.0,3,1,0,0,0,0,0,0,45,2,5,0,false
0.9.0,1,1,0,0,0,0,2,0,45,1,4,0,false
0.9.6,3,1,0,0,0,0,0,0,185,2,4,0,false
0.9.0,3,1,1,0,0,0,0,0,37,2,2,0,false
0.9.0,14,3,4,0,0,1,1,3,45,1,4,2,false
0.9.6,3,1,0,0,0,1,0,1,185,2,2,0,true
0.9.0,3,2,0,0,0,1,1,4,45,3,13,0,false
0.9.0,3,1,0,0,0,1,0,0,0,1,4,0,false
0.9.0,3,1,0,0,0,0,0,1,37,2,6,0,false
0.9.6,3,1,1,0,0,0,0,0,168,3,3,0,false
0.9.0,3,1,0,0,0,1,0,1,45,3,13,0,false
0.9.0,3,1,0,0,0,1,0,0,0,1,6,0,false
0.9.0,3,1,1,0,0,0,0,0,37,2,2,0,false
0.9.0,5,1,1,0,0,1,0,2,0,1,6,0,false
0.9.6,3,1,0,0,0,1,1,0,185,4,19,0,true
0.9.6,3,1,0,0,0,1,0,0,185,2,2,0,true
0.9.0,4,1,1,0,0,1,1,3,45,1,5,1,false
0.9.0,3,1,1,0,0,0,2,0,45,2,5,0,false
0.9.0,4,1,2,0,0,0,1,0,45,3,10,0,false
0.9.0,3,1,0,0,0,0,0,0,45,3,13,0,false
0.9.6,10,3,1,0,0,3,22,4,185,4,13,4,true
0.9.0,3,1,0,0,0,0,0,0,45,3,7,0,false
0.9.6,3,1,1,0,0,0,0,0,185,2,5,0,false
0.9.0,3,1,0,0,0,1,0,2,45,2,7,0,false
0.9.6,3,1,0,0,0,1,0,0,62,1,2,0,false
0.9.0,3,1,0,0,0,1,1,0,45,3,10,2,false
0.9.0,3,1,1,0,0,0,0,0,45,3,8,0,false
0.9.0,1,1,0,0,0,0,5,0,37,2,3,0,false
0.9.6,3,1,0,0,0,1,0,0,185,1,1,0,false
0.9.6,5,2,1,0,0,2,1,3,185,3,9,1,false
0.9.6,3,1,0,0,0,0,0,0,185,2,4,0,false
0.9.0,3,1,0,0,0,1,0,0,0,1,4,0,false
0.9.6,12,6,4,0,0,2,1,0,185,3,4,2,false
0.9.6,3,1,0,0,0,1,0,0,185,4,19,0,true
0.9.6,37,24,13,2,0,10,1,0,94,2,2,2,false
0.9.6,3,1,0,0,0,1,0,0,168,1,1,0,false
0.9.0,5,3,0,1,0,3,2,0,37,1,2,0,false
0.9.6,3,1,0,0,0,1,0,0,185,1,2,0,false
0.9.0,11,5,3,0,0,3,1,1,37,2,4,1,false
0.9.6,13,6,5,0,0,2,2,3,185,4,13,0,true
0.9.6,8,1,2,0,0,0,1,0,185,2,2,5,false
0.9.0,3,1,0,0,0,1,0,0,37,1,2,0,false
0.9.6,25,3,7,2,0,1,0,1,185,1,1,13,false
0.9.0,3,2,0,0,0,1,1,1,45,3,10,0,false
0.9.6,115,65,27,0,0,1,0,48,185,2,4,15,false
0.9.6,3,1,0,0,0,1,0,2,185,2,3,0,true
0.9.0,3,1,0,0,0,1,0,0,37,2,2,0,false
0.9.0,18,11,7,0,0,1,2,10,45,3,13,0,false
0.9.6,3,1,0,0,0,1,0,0,185,3,5,0,false
0.9.6,6,2,0,0,0,0,0,0,185,1,1,0,false
0.9.0,3,1,0,0,0,0,0,0,0,1,6,0,false
0.9.6,4,1,1,0,0,0,0,1,168,2,2,2,false
0.9.6,6,5,1,0,0,0,1,3,185,4,19,0,true
0.9.0,4,2,2,0,0,0,0,0,37,2,6,0,false
0.9.0,4,2,1,0,0,0,1,0,0,2,9,0,false
0.9.6,1,1,0,0,0,0,0,0,185,2,4,0,false
0.9.0,3,1,0,0,0,1,0,0,0,1,7,0,false
0.9.0,3,1,0,0,0,1,0,0,45,2,8,0,false
0.9.0,3,1,0,0,0,1,0,1,37,2,4,0,false
0.9.0,13,5,6,0,0,0,3,7,45,4,9,1,false
0.9.0,13,3,1,0,1,1,0,3,45,3,7,0,false
0.9.0,3,1,0,0,0,1,0,1,45,2,6,1,false
0.9.6,3,1,0,0,0,1,0,0,185,3,3,0,false
0.9.6,2,1,0,0,0,0,5,0,185,2,2,0,true
0.9.0,6,3,1,0,0,1,1,5,0,1,5,0,false
0.9.6,3,1,0,0,0,0,0,1,168,2,2,1,false
0.9.0,3,1,0,0,0,0,0,0,45,2,5,0,false
0.9.6,3,1,0,0,0,0,0,0,168,3,5,0,false
0.9.6,1,1,0,0,0,0,4,0,185,2,2,0,true
0.9.0,3,2,0,0,0,1,4,0,45,3,11,0,false
0.9.0,11,4,1,0,1,2,0,2,45,3,11,0,false
0.9.0,3,2,0,0,0,1,5,0,0,1,7,0,false
0.9.6,3,1,1,0,0,0,0,0,168,1,2,0,false
0.9.6,3,1,0,0,0,1,4,0,94,2,2,0,false
0.9.0,3,1,0,0,0,0,0,1,37,2,4,0,false
0.9.0,3,1,0,0,0,1,0,0,45,1,3,0,false
0.9.6,14,10,5,2,0,1,1,1,168,1,2,3,false
0.9.0,2,1,0,0,0,0,0,0,45,3,6,0,false
0.9.0,3,2,0,0,0,1,1,0,37,1,2,0,false
0.9.6,11,2,0,0,1,0,2,5,185,4,19,0,true
0.9.6,8,3,1,1,0,3,0,0,168,1,1,0,false
0.9.0,3,1,0,0,0,1,0,0,0,1,8,0,false
0.9.0,4,2,1,0,0,0,0,0,45,1,7,0,false
0.9.6,30,12,14,0,1,2,0,4,168,1,1,1,false
0.9.6,6,2,4,0,0,0,1,1,185,4,14,1,true
0.9.6,3,1,1,0,0,0,0,0,168,1,1,0,false
0.9.0,10,4,1,0,0,3,0,3,45,3,8,0,false
0.9.6,1,1,0,0,0,0,0,0,185,2,5,0,false
0.9.0,4,2,1,0,0,1,1,1,45,3,11,0,false
0.9.6,5,4,0,0,0,0,1,0,168,1,1,0,false
0.9.0,3,1,0,0,0,0,0,0,45,2,8,0,false
0.9.0,4,1,1,0,0,1,1,2,37,2,3,0,false
0.9.0,23,13,3,0,0,1,0,0,45,1,4,2,false
0.9.0,4,1,2,0,0,0,0,0,45,2,7,0,false
0.9.0,9,4,3,0,0,2,0,0,37,3,9,1,false
0.9.6,19,8,6,0,1,5,3,3,168,2,5,1,false
0.9.0,1,1,0,0,0,0,1,0,45,1,4,0,false
0.9.6,6,1,1,0,0,1,3,1,168,2,2,1,false
0.9.0,3,1,0,0,0,1,0,0,37,2,4,0,false
0.9.6,4,1,0,0,0,1,1,1,185,2,5,0,false
0.9.0,1,1,0,0,0,0,1,0,45,2,5,0,false
0.9.0,1,1,0,0,0,0,7,0,45,3,6,0,false
0.9.6,9,9,1,0,0,0,0,1,168,1,2,0,false
0.9.0,12,3,0,0,1,1,3,1,45,2,5,3,false
0.9.0,12,4,1,0,1,2,0,3,45,2,6,0,false
0.9.6,39,11,7,1,0,2,4,0,168,1,2,5,false
0.9.0,3,1,0,0,0,1,0,0,45,2,5,0,false
0.9.0,22,8,3,1,2,1,1,1,37,2,2,4,false
0.9.6,4,5,1,0,0,1,0,0,168,3,5,0,false
0.9.0,3,1,0,0,0,0,0,0,45,2,5,0,false
0.9.6,3,1,0,0,0,1,0,0,168,1,1,0,false
0.9.6,4,1,0,0,0,1,0,0,185,1,1,0,false
0.9.6,4,2,1,0,0,1,10,0,168,1,1,0,false
0.9.0,38,12,23,0,0,2,0,12,37,2,5,3,false
0.9.6,3,1,0,0,0,0,0,0,185,2,4,0,false
0.9.0,3,1,0,0,0,1,0,0,0,1,4,0,false
0.9.6,3,1,0,0,0,0,1,1,168,2,2,0,false
0.9.0,2,1,0,0,0,0,1,0,45,2,6,0,false
0.9.0,91,48,26,0,0,2,1,8,45,2,4,11,false
0.9.6,2,1,0,0,0,0,0,0,185,2,3,0,true
0.9.0,3,1,0,0,0,1,0,0,45,1,4,0,false
0.9.6,3,1,1,0,0,0,3,0,168,1,1,0,false
0.9.0,3,1,0,0,0,0,0,0,45,2,5,0,false
0.9.6,1,1,0,0,0,0,0,0,185,2,4,0,false
0.9.6,3,1,0,0,0,0,0,1,168,2,2,1,false
0.9.6,3,1,0,0,0,1,0,0,185,1,1,0,false
0.9.0,13,3,1,0,1,1,0,3,45,3,7,0,false
0.9.6,29,21,5,0,0,2,2,8,168,1,1,2,false
0.9.0,3,1,0,0,0,1,0,1,37,2,4,0,false
0.9.6,16,7,3,0,1,4,5,1,94,1,1,1,false
0.9.0,10,3,0,1,1,0,0,5,45,3,11,0,false
0.9.0,3,1,0,0,0,1,0,0,0,1,5,0,false
0.9.0,19,4,2,0,0,3,1,8,45,4,9,3,false
0.9.6,3,1,0,0,0,0,0,0,185,2,4,0,false
0.9.0,7,10,0,0,0,0,0,2,37,2,3,0,false
0.9.0,3,1,0,0,0,1,0,1,45,3,13,0,false
0.9.0,3,1,0,0,0,1,0,0,45,4,9,0,false
0.9.0,3,1,0,0,0,1,0,0,37,2,2,0,false
0.9.0,3,1,0,0,0,1,4,0,45,3,13,0,false
0.9.6,11,3,3,0,0,1,0,4,94,2,2,1,false
0.9.0,3,1,0,0,0,1,0,0,45,3,7,0,false
0.9.6,3,1,0,0,0,0,0,1,168,1,1,0,false
0.9.0,5,3,1,0,0,2,0,1,0,1,5,1,false
0.9.6,3,1,0,0,0,0,0,0,185,2,4,0,false
0.9.6,1,1,0,0,0,0,3,0,185,2,2,0,true
0.9.0,3,1,0,0,0,1,0,1,0,2,6,1,false
0.9.6,7,4,1,0,0,4,2,1,185,1,1,3,false
0.9.0,3,1,0,0,0,1,0,0,45,2,7,0,false
0.9.6,1,1,0,0,0,0,2,0,185,2,2,0,false
0.9.0,3,1,0,0,0,1,0,0,37,2,4,0,false
0.9.6,12,5,5,0,0,0,3,4,185,1,2,0,true
0.9.0,4,2,1,0,0,0,0,2,37,2,6,0,false
0.9.6,3,1,0,0,0,0,0,0,168,3,5,0,false
0.9.0,1,1,0,0,0,0,3,0,45,1,4,0,false
0.9.6,3,1,0,0,0,1,0,0,168,1,1,1,false
0.9.0,3,1,0,0,0,0,0,0,45,3,13,0,false
0.9.6,3,1,0,0,0,0,0,1,168,1,1,0,false
0.9.6,3,1,0,0,0,0,0,0,185,3,10,0,false
0.9.6,3,1,0,0,0,0,0,0,185,1,1,0,false
0.9.6,16,1,1,0,0,1,1,1,185,1,1,46,false
0.9.0,3,1,0,0,0,1,0,0,45,3,13,0,false
0.9.6,1,1,0,0,0,0,0,0,185,2,5,0,false
0.9.0,3,1,1,0,0,0,1,0,37,2,3,0,false
0.9.6,3,1,0,0,0,1,0,0,185,1,1,0,false
0.9.6,1,1,0,0,0,0,0,0,185,2,4,0,false
0.9.0,3,1,0,0,0,1,0,0,45,2,6,0,false
0.9.0,24,9,9,2,0,0,1,9,37,3,3,1,false
0.9.0,3,1,0,0,0,1,1,0,45,1,4,0,false
0.9.6,3,1,1,0,0,0,0,0,94,2,2,0,false
0.9.0,3,1,0,0,0,0,9,2,45,1,4,0,false
0.9.0,3,1,0,0,0,1,0,0,0,1,4,0,false
0.9.0,3,1,1,0,0,0,1,0,45,4,9,0,false
0.9.0,3,1,0,0,0,1,1,1,0,1,6,0,false
0.9.0,3,1,0,0,0,1,0,0,37,1,2,0,false
0.9.6,4,2,0,1,0,1,0,0,94,1,1,0,false
0.9.0,9,4,2,0,0,0,0,3,37,1,2,0,false
0.9.0,20,4,3,0,2,1,1,7,45,3,11,0,false
0.9.0,3,1,0,0,0,1,0,0,45,2,8,0,false
0.9.0,29,7,5,1,0,0,0,7,37,2,3,2,false
0.9.0,4,2,0,0,0,1,0,2,0,1,8,0,false
0.9.0,27,11,3,2,0,4,0,4,37,2,3,2,false
0.9.6,4,2,2,0,0,0,1,0,185,2,5,0,false
0.9.6,3,1,0,0,0,0,0,3,185,2,3,0,true
0.9.0,1,1,0,0,0,0,0,0,45,3,6,0,false
0.9.6,6,1,4,0,0,0,1,0,168,2,7,0,false
0.9.0,7,2,3,0,0,0,1,3,37,1,2,2,false
0.9.0,3,1,0,0,0,1,0,0,0,1,6,0,false
0.9.6,6,1,0,0,0,0,0,2,168,1,1,0,false
0.9.6,3,1,0,0,0,1,0,1,185,2,3,0,true
0.9.0,3,1,0,0,0,1,6,1,45,3,10,0,false
0.9.6,3,1,0,0,0,1,0,0,168,1,1,0,false
0.9.6,3,1,0,0,0,1,0,0,168,2,5,1,true
0.9.6,3,1,0,0,0,0,0,0,168,3,5,0,false
0.9.6,3,1,0,0,0,0,0,0,185,1,1,0,false
0.9.6,1,1,0,0,0,0,0,0,185,2,5,0,false
0.9.6,17,1,0,0,0,1,1,1,185,1,3,1,true
0.9.6,3,1,0,0,0,1,2,0,185,4,14,0,true
0.9.6,8,2,0,0,1,0,0,2,185,2,2,1,true
0.9.6,4,1,2,0,0,0,0,0,185,1,1,0,false
0.9.0,15,3,4,0,0,0,4,2,45,3,8,0,false
0.9.6,5,5,0,0,0,3,1,3,168,2,2,0,false
0.9.6,8,2,0,0,1,1,0,2,185,2,2,1,true
0.9.0,3,1,0,0,0,1,0,1,45,2,7,0,false
0.9.0,7,6,3,0,0,0,1,10,45,4,9,1,false
0.9.0,3,1,0,0,0,1,1,1,0,1,6,0,false
0.9.6,3,1,0,0,0,0,0,0,185,2,5,0,false
0.9.6,1,1,0,0,0,0,0,0,185,2,5,0,false
0.9.6,3,1,0,0,0,1,2,0,168,2,5,0,false
0.9.0,4,1,2,0,0,0,1,0,45,3,11,0,false
0.9.0,6,2,2,0,0,0,0,4,0,1,7,0,false
0.9.6,3,1,0,0,0,1,0,0,168,2,5,0,true
0.9.6,3,1,0,0,0,0,0,0,168,3,5,0,false
0.9.0,3,1,0,0,0,1,0,0,45,3,11,0,false
0.9.6,14,6,10,0,0,0,0,0,168,3,5,1,false
0.9.6,17,10,4,3,0,3,0,1,168,1,2,7,false
0.9.6,36,21,15,0,0,7,5,8,185,1,1,2,false
0.9.0,7,3,1,0,0,0,3,2,0,1,7,2,false
0.9.0,3,1,0,0,0,0,0,0,0,1,6,0,false
0.9.0,3,1,1,0,0,0,1,0,0,1,4,0,false
0.9.0,3,1,0,0,0,1,2,1,45,3,11,0,false
0.9.6,82,37,33,0,0,0,1,21,168,1,3,2,false
0.9.6,3,1,0,0,0,1,1,0,168,1,2,0,false
0.9.0,3,1,0,0,0,1,0,1,45,2,7,0,false
0.9.0,3,1,0,0,0,1,1,0,45,3,8,1,false
0.9.0,3,1,0,0,0,1,0,0,0,1,4,0,false
0.9.0,4,1,0,0,0,1,2,1,45,2,5,0,false
0.9.0,3,1,0,0,0,0,0,0,0,1,6,0,false
0.9.0,3,1,0,0,0,1,2,0,45,3,13,0,false
0.9.0,3,1,0,0,0,1,2,1,45,3,10,0,false
0.9.6,24,6,4,0,0,2,1,6,185,1,1,10,false
0.9.6,3,1,0,0,0,1,0,0,185,2,4,0,false
0.9.0,3,1,0,0,0,1,0,0,37,2,4,0,false
0.9.6,3,1,0,0,0,0,0,0,185,1,1,0,false
0.9.0,3,1,1,0,0,0,0,0,0,2,9,0,false
0.9.0,3,1,1,0,0,0,2,0,0,2,7,0,false
0.9.6,3,1,0,0,0,1,0,0,185,3,5,0,false
0.9.0,3,1,0,0,0,1,0,0,45,2,4,0,false
0.9.6,2,1,0,0,0,0,2,0,185,3,6,0,true
0.9.0,3,1,0,0,0,1,0,0,37,3,6,0,false
0.9.6,16,5,1,0,1,1,1,6,185,4,14,0,true
0.9.6,28,7,3,2,0,1,1,0,94,1,2,0,false
0.9.6,9,1,0,0,0,0,1,0,185,3,8,0,false
0.9.0,2,1,0,0,0,0,0,0,45,3,11,0,false
0.9.6,3,1,0,0,0,1,0,0,185,1,1,0,false
0.9.0,3,1,0,0,0,1,0,0,37,2,2,0,false
0.9.6,3,1,0,0,0,0,0,0,185,1,1,0,false
0.9.0,4,1,2,0,0,0,4,0,45,2,8,0,false
0.9.0,3,1,0,0,0,1,0,0,0,1,5,0,false
0.9.6,5,1,2,0,0,0,0,0,168,1,1,1,false
0.9.6,3,1,0,0,0,0,0,0,185,2,5,0,false
0.9.0,3,1,0,0,0,1,0,0,0,1,4,0,false
0.9.0,3,1,0,0,0,1,0,0,37,1,2,0,false
0.9.6,4,3,1,0,0,1,9,1,185,2,5,1,false
0.9.6,3,1,1,0,0,0,0,0,94,1,2,0,false
0.9.6,3,2,0,0,0,0,0,1,168,1,1,0,false
0.9.0,3,1,1,0,0,0,0,0,37,2,4,0,false
0.9.0,3,1,0,0,0,1,0,0,0,1,5,0,false
0.9.0,3,1,0,0,0,0,0,0,0,1,6,0,false
0.9.6,3,1,0,0,0,1,0,0,185,1,1,0,false
0.9.6,17,4,8,0,0,1,3,25,185,3,9,1,false
0.9.6,3,1,0,0,0,1,2,1,185,2,2,0,true
0.9.6,3,1,0,0,0,1,0,3,185,2,3,0,true
0.9.0,1,1,0,0,0,0,3,0,45,3,8,0,false
0.9.0,3,1,0,0,0,0,0,1,45,2,7,0,false
0.9.6,3,1,0,0,0,0,0,0,168,2,2,0,false
0.9.0,12,4,0,0,0,3,2,0,37,2,3,0,false
0.9.0,1,1,0,0,0,0,2,0,45,2,6,0,false
0.9.6,2,1,0,0,0,0,0,0,185,1,1,0,false
0.9.6,3,1,1,0,0,0,0,0,168,1,2,0,false
0.9.0,3,1,0,0,0,1,0,0,37,3,9,0,false
0.9.0,3,1,0,0,0,0,0,1,0,1,7,2,false
0.9.6,17,5,7,0,0,2,0,5,168,3,4,0,false
0.9.6,3,1,0,0,0,1,0,0,168,1,1,0,false
0.9.0,3,1,0,0,0,0,0,0,37,2,4,0,false
0.9.0,5,3,0,0,0,3,1,2,45,3,10,0,false
0.9.0,7,3,3,0,0,1,2,3,0,1,7,0,false
0.9.6,3,1,0,0,0,1,0,0,185,2,4,0,false
0.9.6,14,6,7,0,0,2,1,1,168,2,2,1,false
0.9.6,68,31,16,7,0,19,1,2,185,1,1,3,false
0.9.6,3,1,0,0,0,0,0,1,185,2,3,0,true
0.9.6,3,1,0,0,0,0,0,1,168,1,1,0,false
0.9.6,3,1,1,0,0,0,1,0,185,1,2,0,false
0.9.6,3,1,0,0,0,1,10,0,185,4,13,0,true
0.9.0,4,1,1,0,0,1,0,0,45,1,3,0,false
0.9.6,3,1,0,0,0,1,0,1,185,1,1,0,false
0.9.6,3,1,0,0,0,1,6,1,185,4,16,0,false
0.9.0,5,2,1,0,0,1,0,0,0,1,4,1,false
0.9.0,114,35,5,0,0,0,0,35,37,2,3,15,false
0.9.0,3,1,0,0,0,1,4,2,45,2,8,1,false
0.9.6,3,1,0,0,0,1,0,1,168,2,2,0,false
0.9.0,9,2,4,0,0,0,0,1,0,1,5,0,false
0.9.0,3,1,1,0,0,0,0,0,0,1,4,0,false
0.9.6,1,1,0,0,0,0,10,0,168,1,1,0,false
0.9.6,6,3,1,0,0,0,0,3,185,2,2,2,false
0.9.0,6,5,1,0,0,0,1,5,45,3,11,1,false
0.9.6,9,3,0,0,1,1,0,2,185,1,1,1,false
0.9.0,10,3,3,0,0,1,4,6,37,2,5,4,false
0.9.6,3,1,0,0,0,1,0,0,185,1,3,0,false
0.9.0,3,1,0,0,0,1,11,0,45,3,8,0,false
0.9.6,3,1,0,0,0,1,0,0,185,3,5,0,false
0.9.0,15,4,1,0,1,0,1,1,45,2,7,0,false
0.9.6,4,1,1,0,0,1,2,0,185,1,1,1,false
0.9.0,3,1,0,0,0,1,1,0,45,2,6,0,false
0.9.6,8,3,0,0,0,0,1,0,168,3,5,0,false
0.9.0,3,1,0,0,0,1,0,0,37,2,3,0,false
0.9.6,10,3,6,0,0,0,0,5,168,1,1,1,false
0.9.0,3,1,0,0,0,1,0,0,45,2,5,0,false
0.9.6,5,2,1,0,0,0,0,1,168,2,7,1,false
0.9.0,3,1,0,0,0,1,0,0,37,1,2,0,false
0.9.6,3,1,0,0,0,0,0,0,94,1,1,0,false
0.9.0,8,2,0,0,1,1,0,0,0,1,5,0,false
0.9.6,3,1,0,0,0,1,1,0,185,2,3,0,false
0.9.6,12,8,5,0,0,0,1,4,185,4,13,3,true
0.9.6,3,1,1,0,0,0,0,0,185,2,3,0,true
0.9.6,3,1,0,0,0,1,0,0,185,1,1,0,false
0.9.0,12,3,1,0,1,1,0,1,37,3,9,0,false
0.9.0,3,1,0,0,0,0,0,0,45,3,7,0,false
0.9.6,8,2,0,0,1,0,1,1,185,3,10,1,true
0.9.6,3,1,0,0,0,0,0,1,168,1,1,0,false
0.9.6,3,1,0,0,0,1,0,0,168,2,2,0,false
0.9.6,3,1,0,0,0,1,0,0,185,2,5,0,false
0.9.0,3,1,0,0,0,1,3,0,45,2,4,1,false
0.9.0,4,1,0,0,0,0,1,1,45,4,8,0,false
0.9.0,1,1,0,0,0,0,1,0,45,1,4,0,false
0.9.0,3,1,0,0,0,0,0,0,45,2,5,0,false
0.9.0,1,1,0,0,0,0,0,0,45,3,8,0,false
0.9.6,3,1,0,0,0,1,0,0,185,1,3,0,true
0.9.6,9,6,5,0,0,2,2,0,168,2,7,0,false
0.9.0,3,1,0,0,0,1,0,0,45,1,4,0,false
0.9.0,13,5,8,0,0,0,1,8,45,2,8,3,false
0.9.0,67,29,26,2,0,3,0,0,45,2,10,4,false
0.9.0,3,1,0,0,0,1,0,0,0,1,4,0,false
0.9.6,3,1,0,0,0,1,0,1,185,3,10,0,false
0.9.0,4,3,0,0,0,2,2,1,45,3,13,1,false
0.9.0,3,1,0,0,0,1,1,0,45,3,13,0,false
0.9.6,4,1,0,0,0,1,0,0,83,2,2,0,false
0.9.0,3,1,0,0,0,1,0,0,37,2,3,0,false
0.9.0,3,1,0,0,0,1,0,0,37,2,3,0,false
0.9.6,23,19,9,0,0,7,2,14,185,4,14,9,true
0.9.0,3,1,0,0,0,1,0,1,45,3,13,0,false
0.9.0,3,1,0,0,0,1,3,0,37,2,2,0,false
0.9.6,3,1,0,0,0,1,0,0,185,2,5,0,false
0.9.6,3,1,1,0,0,0,0,0,168,2,3,0,false
0.9.0,3,1,0,0,0,1,0,0,0,1,6,0,false
0.9.0,1,1,0,0,0,0,0,0,45,3,6,0,false
0.9.6,4,5,0,0,0,2,1,0,185,3,5,1,true
0.9.0,4,2,0,0,0,0,0,0,37,2,6,0,false
0.9.0,3,1,0,0,0,1,0,0,0,1,4,0,false
0.9.6,4,2,0,0,0,2,15,1,185,3,6,0,true
0.9.0,24,12,3,1,2,1,0,2,45,1,5,2,false
0.9.0,3,1,0,0,0,1,0,0,45,1,4,1,false
0.9.6,3,3,0,0,0,0,1,0,168,1,3,1,false
0.9.6,3,1,0,0,0,1,0,1,168,2,3,0,false
0.9.6,25,11,13,4,0,3,0,10,168,3,6,2,false
0.9.0,2,1,0,0,0,0,0,0,45,2,5,0,false
0.9.0,3,1,0,0,0,1,2,0,45,2,6,0,false
0.9.6,3,1,0,0,0,1,0,0,185,1,1,0,false
0.9.0,3,1,0,0,0,1,0,0,0,1,4,0,false
0.9.6,3,1,1,0,0,0,0,0,185,3,5,0,false
0.9.6,5,3,0,0,0,1,2,0,185,1,2,0,true
0.9.6,4,1,1,0,0,1,0,0,168,2,7,0,false
0.9.0,3,1,0,0,0,1,0,0,37,2,3,0,false
0.9.6,1,1,0,0,0,0,0,0,185,2,4,0,false
0.9.6,3,1,0,0,0,1,1,0,168,3,5,0,false
0.9.6,3,1,0,0,0,1,0,0,168,3,5,0,false
0.9.6,10,3,0,0,1,0,0,0,168,1,1,0,false
0.9.0,3,1,0,0,0,1,0,1,45,2,8,0,false
0.9.6,3,1,0,0,0,1,0,0,185,2,2,0,true
0.9.0,3,1,0,0,0,1,0,0,0,1,4,0,false
0.9.0,6,1,0,0,0,0,0,4,37,2,3,0,false
0.9.6,1,1,0,0,0,0,1,0,185,1,1,0,false
0.9.6,3,1,1,0,0,0,0,0,185,2,2,0,false
0.9.6,3,1,0,0,0,1,1,2,185,2,3,1,true
0.9.0,3,1,0,0,0,1,0,1,0,2,12,0,false
0.9.0,4,2,0,0,0,1,0,0,45,3,13,0,false
0.9.0,3,1,0,0,0,1,0,0,0,1,4,0,false
0.9.0,2,1,0,0,0,0,0,0,37,2,2,0,false
0.9.6,6,5,2,0,0,3,3,6,168,1,3,2,false
0.9.6,3,1,0,0,0,1,0,0,185,2,2,0,false
0.9.6,8,2,0,0,1,0,0,2,185,2,2,1,true
0.9.0,10,5,4,0,0,4,12,9,45,3,11,3,false
0.9.6,1,1,0,0,0,0,0,0,185,1,1,0,false
0.9.0,3,1,0,0,0,1,0,0,45,1,4,0,false
0.9.6,18,11,7,0,0,0,1,7,168,1,1,2,false
0.9.0,3,1,0,0,0,1,0,0,37,2,3,0,false
0.9.0,3,1,0,0,0,0,0,0,45,1,3,0,false
0.9.6,3,1,0,0,0,1,0,0,185,2,4,0,false
0.9.0,3,1,1,0,0,0,1,0,0,1,6,0,false
0.9.0,14,4,4,0,0,3,1,0,37,1,2,1,false
0.9.6,3,1,0,0,0,1,0,0,185,1,3,0,false
0.9.0,23,4,8,0,1,0,2,2,45,1,5,5,false
0.9.0,3,1,0,0,0,1,0,1,45,3,13,0,false
0.9.0,3,1,0,0,0,1,0,0,37,2,3,0,false
0.9.6,4,2,2,0,0,0,0,0,168,2,7,0,false
0.9.6,3,1,0,0,0,1,0,1,168,2,5,0,true
0.9.6,3,1,0,0,0,1,0,1,185,3,9,1,false
0.9.0,26,10,8,0,0,2,2,29,45,2,6,9,false
0.9.6,3,1,1,0,0,0,0,0,185,1,1,0,false
0.9.0,3,1,0,0,0,1,1,0,45,2,5,0,false
0.9.6,3,1,0,0,0,1,0,0,185,1,1,0,false
0.9.6,8,2,0,0,1,1,0,1,185,2,2,1,true
0.9.6,4,2,0,0,0,1,0,1,168,2,3,0,false
0.9.6,4,3,1,0,0,1,1,2,185,4,13,0,true
0.9.6,27,9,2,0,0,2,1,4,185,1,1,15,false
0.9.0,4,3,0,0,0,0,1,0,45,2,6,0,false
0.9.6,11,2,3,0,1,0,0,3,168,2,2,0,false
0.9.0,4,1,0,0,0,0,0,2,45,3,13,0,false
0.9.6,3,1,0,0,0,0,0,0,185,2,4,0,false
0.9.0,3,2,1,0,0,0,2,0,37,2,2,0,false
0.9.6,4,2,0,0,0,2,44,0,185,3,6,0,true
0.9.6,3,1,0,0,0,0,0,1,168,1,1,0,false
0.9.6,3,1,0,0,0,1,0,0,185,1,1,0,false
0.9.0,3,1,1,0,0,0,0,0,37,1,2,0,false
0.9.0,3,1,0,0,0,1,0,0,45,2,4,0,false
0.9.6,3,4,0,0,0,1,1,0,185,2,8,0,false
0.9.0,4,2,0,1,0,1,0,2,0,1,8,0,false
0.9.0,3,1,0,0,0,0,1,0,0,1,7,0,false
0.9.6,3,1,0,0,0,1,0,1,185,3,10,0,false
0.9.0,3,1,0,0,0,1,0,0,37,1,2,0,false
0.9.0,3,1,0,0,0,0,0,0,0,1,4,0,false
0.9.6,3,1,0,0,0,0,1,1,185,2,4,0,false
0.9.0,3,1,0,0,0,1,0,0,0,1,5,0,false
0.9.0,3,1,0,0,0,1,0,1,45,2,7,0,false
0.9.6,1,1,0,0,0,0,1,0,185,1,1,0,false
0.9.6,4,1,0,0,0,1,0,0,83,2,2,0,false
0.9.0,2,1,0,0,0,0,0,0,37,2,2,0,false
0.9.0,4,3,0,0,0,2,4,2,37,2,6,1,false
0.9.6,3,1,0,0,0,1,0,1,94,1,1,0,false
0.9.6,3,1,0,0,0,0,0,3,185,2,3,0,true
0.9.0,3,1,0,0,0,0,0,0,0,1,6,0,false
0.9.6,4,3,0,0,0,2,4,2,168,2,7,1,false
0.9.0,3,1,0,0,0,0,0,0,0,1,6,0,false
0.9.6,1,1,0,0,0,0,0,0,168,2,2,0,false
0.9.0,6,2,1,0,0,2,2,1,45,1,5,0,false
0.9.6,3,1,0,0,0,1,0,0,168,1,1,0,false
0.9.0,3,1,1,0,0,0,0,0,37,2,4,0,false
0.9.0,3,1,0,0,0,1,0,1,37,3,6,0,false
0.9.0,3,1,0,0,0,1,0,0,37,3,9,0,false
0.9.6,1,1,0,0,0,0,1,0,185,2,2,0,true
0.9.6,18,14,6,0,0,2,2,2,185,3,6,2,true
0.9.0,5,2,0,0,0,0,0,1,45,1,3,0,false
0.9.6,3,1,0,0,0,1,0,1,168,2,2,0,false
0.9.6,3,1,0,0,0,0,0,0,185,1,1,0,false
0.9.0,3,1,0,0,0,1,2,0,45,2,5,0,false
0.9.0,5,5,0,0,0,3,2,0,37,2,6,2,false
0.9.0,6,3,1,0,0,0,1,1,45,2,5,0,false
0.9.0,3,1,0,0,0,1,1,1,45,3,6,0,false
0.9.6,3,1,0,0,0,1,2,1,185,3,10,0,false
0.9.6,13,4,1,0,1,0,6,0,168,3,6,1,false
0.9.0,1,1,0,0,0,0,1,0,45,1,4,0,false
0.9.0,4,1,0,0,0,0,0,2,45,2,7,0,false
0.9.0,4,1,0,0,0,1,0,0,45,2,5,0,false
0.9.6,13,3,4,0,0,1,3,5,94,1,1,0,false
0.9.6,3,1,0,0,0,0,0,1,168,1,1,0,false
0.9.6,7,3,2,0,0,0,0,1,168,2,3,2,false
0.9.0,3,1,0,0,0,1,4,1,45,3,8,0,false
0.9.6,5,2,2,0,0,0,1,1,185,4,13,0,true
0.9.6,3,1,1,0,0,0,0,1,185,4,14,0,true
0.9.6,3,1,0,0,0,0,0,0,168,3,5,0,false
0.9.0,5,2,1,0,0,1,2,2,45,2,8,2,false
0.9.0,3,1,0,0,0,1,0,1,45,2,4,0,false
0.9.0,12,15,4,0,0,6,0,2,45,2,10,3,false
0.9.6,3,1,0,0,0,1,0,0,168,2,5,0,false
0.9.0,3,1,0,0,0,1,0,0,0,1,4,0,false
0.9.0,3,1,0,0,0,1,0,0,37,2,4,0,false
0.9.6,2,1,0,0,0,0,0,0,185,2,3,0,true
0.9.0,7,2,3,0,0,1,1,1,37,1,2,0,false
0.9.0,3,1,0,0,0,1,1,0,45,2,6,0,false
0.9.6,3,1,0,1,0,1,0,0,168,2,7,0,false
0.9.6,4,1,1,0,0,0,0,2,168,1,1,2,false
0.9.0,11,4,3,0,0,1,1,4,45,2,6,0,false
0.9.6,4,1,2,0,0,0,1,0,185,4,14,0,true
0.9.0,3,1,0,0,0,0,0,0,0,1,6,0,false
0.9.6,28,9,15,0,0,1,1,2,168,1,2,1,false
0.9.0,3,1,0,0,0,1,12,1,0,2,13,0,false
0.9.0,3,1,0,0,0,1,0,0,45,1,4,0,false
0.9.6,3,2,0,0,0,1,0,0,185,1,3,1,false
0.9.0,7,3,2,0,0,3,7,1,37,3,6,1,false
0.9.0,4,1,2,0,0,0,1,0,45,3,13,0,false
0.9.6,3,1,1,0,0,0,3,0,168,1,1,0,false
0.9.6,3,1,0,0,0,1,0,0,185,1,3,0,false
0.9.0,5,3,1,0,0,0,1,2,45,3,11,0,false
0.9.0,2,1,0,0,0,0,1,0,45,2,6,0,false
0.9.6,3,1,0,0,0,1,0,0,185,1,1,0,false
0.9.0,1,1,0,0,0,0,2,0,45,3,8,0,false
0.9.6,3,1,1,0,0,0,0,0,185,2,2,0,false
0.9.0,3,2,0,0,0,1,0,0,45,2,6,0,false
0.9.6,3,2,0,0,0,1,0,0,168,1,1,0,false
0.9.6,3,1,0,0,0,0,0,1,185,1,2,0,false
0.9.6,4,2,0,1,0,1,0,0,94,1,1,0,false
0.9.0,6,4,1,0,0,0,0,2,37,2,3,0,false
0.9.0,3,1,0,0,0,0,0,1,45,2,7,0,false
0.9.6,27,15,13,0,0,2,0,4,185,1,3,8,true
0.9.6,1,1,0,0,0,0,1,0,168,1,1,0,true
0.9.0,13,4,4,0,0,0,1,3,37,2,3,2,false
0.9.0,1,1,0,0,0,0,0,0,45,3,8,0,false
0.9.6,3,1,1,0,0,0,1,0,168,1,3,0,false
0.9.0,23,8,7,2,0,0,1,2,37,2,4,0,false
0.9.0,11,6,1,0,0,1,0,0,37,2,3,0,false
0.9.6,3,2,0,0,0,1,0,0,185,4,14,0,true
0.9.6,4,2,0,0,0,2,1,0,185,4,13,0,true
0.9.6,3,1,0,0,0,1,0,1,185,2,4,0,false
0.9.0,3,1,0,0,0,1,0,0,0,1,7,0,false
0.9.0,3,1,0,0,0,1,0,0,45,1,7,0,false
0.9.0,8,2,4,0,0,2,0,6,45,2,7,3,false
0.9.6,5,5,0,0,0,3,2,0,168,2,5,1,true
0.9.6,3,1,0,0,0,1,0,1,185,2,3,0,true
0.9.6,3,1,0,0,0,1,2,1,185,1,2,0,true
0.9.6,9,3,0,0,1,1,0,2,185,1,1,1,false
0.9.0,1,1,0,0,0,0,0,0,45,3,8,0,false
0.9.6,4,2,0,0,0,2,2,0,94,1,1,0,false
0.9.6,3,1,0,0,0,1,0,1,185,1,3,1,true
0.9.6,3,1,1,0,0,0,0,0,168,3,3,0,false
0.9.0,1,1,0,0,0,0,0,0,45,3,8,0,false
0.9.0,5,3,1,0,0,2,2,1,0,2,9,1,false
0.9.0,4,1,0,0,0,1,0,2,45,2,6,0,false
0.9.6,12,6,3,0,1,2,2,1,185,4,13,4,true
0.9.6,21,9,0,0,0,9,4,0,185,1,1,0,false
0.9.6,3,1,0,0,0,0,0,0,185,2,5,0,false
0.9.6,3,1,0,0,0,1,0,0,185,2,4,0,false
0.9.0,3,1,0,0,0,1,0,0,0,1,4,0,false
0.9.6,3,1,0,1,0,1,1,0,185,1,1,0,false
0.9.6,3,2,0,0,0,1,8,0,185,4,14,0,true
0.9.0,3,1,0,0,0,1,1,0,45,3,11,0,false
0.9.6,22,8,7,0,1,5,1,0,185,1,1,3,false
0.9.0,3,1,0,0,0,1,0,1,37,2,4,0,false
0.9.6,2,1,0,0,0,0,0,0,185,2,2,0,false
0.9.6,3,1,1,0,0,0,1,0,94,2,2,0,false
0.9.6,3,1,0,0,0,1,0,0,185,2,3,0,true
0.9.0,9,2,0,0,1,1,1,2,45,3,7,1,false
0.9.6,4,2,0,0,0,2,0,1,185,1,1,1,false
0.9.6,3,1,0,0,0,0,0,3,185,2,3,0,true
0.9.0,3,1,1,0,0,0,0,0,37,2,2,0,false
0.9.6,3,1,0,0,0,1,0,1,185,2,4,0,false
0.9.6,59,16,18,0,2,2,1,19,185,4,19,13,true
0.9.0,3,1,0,0,0,1,0,0,37,2,4,0,false
0.9.0,3,1,0,0,0,1,1,0,37,2,2,0,false
0.9.6,3,1,0,0,0,1,1,3,185,3,10,0,false
0.9.6,7,3,1,0,0,3,0,1,168,1,1,0,false
0.9.6,8,3,1,0,0,1,2,4,185,3,5,0,true
0.9.0,26,6,2,0,2,1,0,3,45,2,5,3,false
0.9.6,3,1,0,0,0,0,0,1,168,3,3,0,false
0.9.0,1,1,0,0,0,0,0,0,45,3,8,0,false
0.9.0,3,1,0,0,0,0,1,1,37,2,4,0,false
0.9.0,4,1,0,0,0,0,0,1,45,4,9,0,false
0.9.6,3,1,0,0,0,0,0,0,168,3,5,0,false
0.9.0,3,1,0,0,0,1,0,0,37,2,4,0,false
0.9.0,3,1,0,0,0,0,0,0,45,3,11,0,false
0.9.6,5,2,1,0,0,1,0,1,168,2,2,0,false
0.9.0,3,1,0,0,0,0,0,0,45,3,7,0,false
0.9.0,4,1,0,0,0,0,0,1,0,1,8,0,false
0.9.6,4,2,0,0,0,2,3,0,168,2,6,4,false
0.9.0,3,1,0,0,0,1,0,1,45,2,6,0,false
0.9.6,10,5,3,1,0,1,0,1,185,2,2,0,true
0.9.6,3,1,0,0,0,1,0,0,185,1,1,0,false
0.9.6,3,1,1,0,0,0,1,0,168,3,3,0,false
0.9.0,11,3,0,0,1,0,2,8,45,3,13,0,false
0.9.6,37,12,20,17,0,2,2,1,185,2,2,3,false
0.9.6,3,1,0,0,0,1,1,1,185,2,2,0,true
0.9.0,7,2,4,0,0,0,2,1,45,3,13,1,false
0.9.6,4,1,0,0,0,0,0,1,185,1,2,0,true
0.9.6,4,1,1,0,0,1,0,0,185,1,3,0,true
0.9.6,3,2,0,0,0,1,2,0,185,2,2,0,false
0.9.6,3,1,0,0,0,1,0,1,185,2,2,0,true
0.9.6,4,1,0,0,0,0,0,2,168,3,4,0,false
0.9.6,3,1,0,0,0,1,0,1,168,2,3,0,false
0.9.0,10,1,2,0,0,0,1,1,45,4,8,6,false
0.9.0,5,1,0,0,0,1,1,0,45,2,7,0,false
0.9.6,3,1,0,0,0,0,0,3,185,2,3,0,true
0.9.0,4,3,0,0,0,2,0,2,37,2,3,0,false
0.9.0,3,2,0,0,0,1,2,0,0,1,5,0,false
0.9.6,3,1,0,0,0,0,0,0,185,1,1,0,false
0.9.6,8,4,1,0,0,1,3,1,168,2,2,1,false
0.9.0,3,1,0,0,0,1,0,1,37,2,4,0,false
0.9.0,3,1,0,0,0,1,25,0,45,3,10,0,false
0.9.0,8,2,2,0,0,1,1,2,45,3,8,0,false
0.9.6,3,1,0,0,0,1,0,0,185,1,1,0,false
0.9.6,13,9,6,0,0,1,11,4,185,4,19,1,true
0.9.0,3,1,0,0,0,1,0,0,45,3,11,0,false
0.9.0,3,1,0,0,0,1,0,2,45,3,10,0,false
0.9.6,3,1,0,0,0,0,0,1,185,2,3,0,true
0.9.0,3,1,0,0,0,1,0,0,37,2,4,0,false
0.9.0,8,2,0,0,1,1,1,2,45,3,7,1,false
0.9.6,3,1,0,0,0,1,0,0,94,2,2,0,false
0.9.0,3,1,0,0,0,0,0,1,37,2,2,0,false
0.9.0,5,3,2,1,0,1,0,0,45,3,8,0,false
0.9.6,4,1,2,0,0,0,0,0,94,1,1,0,false
0.9.6,12,4,1,0,0,1,1,3,185,1,1,15,false
0.9.6,3,1,0,0,0,1,4,2,185,3,9,1,false
0.9.0,5,2,2,0,0,0,0,3,45,3,8,0,false
0.9.6,3,2,0,0,0,1,1,0,94,2,2,0,false
0.9.0,7,3,1,1,0,0,0,0,37,2,2,1,false
0.9.6,3,1,0,0,0,0,0,0,185,2,4,0,false
0.9.0,16,5,1,0,1,1,4,6,45,3,13,0,false
0.9.0,3,1,0,0,0,0,8,1,45,3,10,0,false
0.9.0,1,1,0,0,0,0,1,0,37,2,3,0,false
0.9.0,11,2,3,0,1,0,0,3,37,2,2,0,false
0.9.6,2,1,0,0,0,0,0,0,185,1,1,0,false
0.9.0,3,1,0,0,0,1,1,1,45,3,13,0,false
0.9.0,10,7,1,1,0,0,0,6,45,1,4,3,false
0.9.0,25,13,10,0,0,1,1,2,45,4,9,4,false
0.9.6,3,1,1,0,0,0,0,0,168,3,3,0,false
0.9.6,3,2,0,0,0,1,0,0,185,4,14,0,true
0.9.0,3,1,0,0,0,0,0,0,0,1,6,0,false
0.9.6,4,2,1,0,0,0,0,0,185,3,5,0,true
0.9.6,3,1,1,0,0,0,0,0,94,1,1,0,false
0.9.6,4,3,0,0,0,2,0,2,185,2,3,0,true
0.9.6,1,1,0,0,0,0,3,0,185,1,2,0,false
0.9.6,22,6,3,0,3,0,1,3,168,1,1,2,false
0.9.0,3,1,0,0,0,1,0,2,37,2,5,0,false
0.9.6,18,7,6,2,1,2,2,5,70,2,10,3,false
0.9.0,1,1,0,0,0,0,2,0,45,1,4,0,false
0.9.0,3,1,0,0,0,0,0,0,45,2,5,0,false
0.9.0,3,1,0,0,0,1,0,0,0,1,4,0,false
0.9.0,62,14,23,1,4,0,3,10,45,3,11,10,false
0.9.0,3,1,0,0,0,1,0,0,37,3,6,0,false
0.9.0,3,1,0,0,0,1,0,0,37,2,3,0,false
0.9.6,3,1,0,0,0,1,0,1,185,3,10,0,false
0.9.6,19,11,7,2,0,0,1,2,168,1,1,1,false
0.9.6,8,2,0,0,1,1,0,2,185,2,2,1,true
0.9.0,6,2,4,0,0,1,5,0,45,3,11,0,false
0.9.6,3,1,0,0,0,1,0,0,168,3,5,0,false
0.9.0,14,1,4,0,0,0,1,0,45,1,4,12,false
0.9.6,4,2,0,0,0,1,0,2,185,2,3,1,true
0.9.6,6,3,2,1,0,2,3,3,185,1,1,0,false
0.9.6,3,1,1,0,0,0,0,0,185,2,5,0,false
0.9.6,3,1,0,0,0,0,0,0,168,1,1,0,false
0.9.6,1,1,0,0,0,0,3,0,185,2,2,0,true
0.9.6,3,1,1,0,0,0,0,0,185,1,2,0,false
0.9.6,3,1,0,0,0,0,0,0,185,2,5,0,false
0.9.6,3,2,1,0,0,0,0,1,168,1,1,0,false
0.9.6,5,2,0,0,0,2,0,0,185,1,1,1,false
0.9.6,3,1,0,0,0,1,0,0,168,2,2,0,false
0.9.0,7,2,2,0,0,2,0,2,45,2,7,0,false
0.9.0,1,1,0,0,0,0,4,0,45,3,6,0,false
0.9.0,3,1,0,0,0,1,1,1,45,3,5,0,false
0.9.6,3,1,0,0,0,0,0,0,185,2,4,0,false
0.9.6,3,1,1,0,0,0,3,0,185,2,4,0,false
0.9.6,4,1,0,0,0,1,0,0,83,2,2,0,false
0.9.0,3,1,0,0,0,1,1,1,45,3,5,0,false
0.9.6,3,1,0,0,0,0,0,0,185,2,5,0,false
0.9.6,17,10,1,0,1,1,1,11,185,4,16,0,false
0.9.0,3,1,0,0,0,1,0,0,0,1,5,0,false
0.9.6,3,1,0,0,0,1,0,0,168,3,3,0,false
0.9.0,1,1,0,0,0,0,3,0,45,2,5,0,false
0.9.6,3,1,0,0,0,1,1,0,185,4,14,0,true
0.9.6,9,1,0,0,1,1,0,4,185,4,19,0,true
0.9.6,3,1,0,0,0,1,0,0,185,1,1,0,false
0.9.0,3,2,0,1,0,1,0,0,37,1,2,0,false
0.9.0,15,4,4,0,0,2,1,5,45,4,8,3,false
0.9.6,12,3,3,0,1,2,2,13,185,3,7,1,false
0.9.0,1,1,0,0,0,0,2,0,45,2,5,0,false
0.9.6,3,1,0,0,0,0,1,0,185,2,5,0,false
0.9.6,3,1,0,0,0,0,0,0,185,1,1,0,false
0.9.6,3,1,0,0,0,0,0,1,168,3,5,0,false
0.9.0,5,4,0,0,0,3,0,0,45,3,11,0,false
0.9.0,5,1,1,0,0,0,0,2,37,2,4,0,false
0.9.0,3,1,0,0,0,1,0,0,0,1,6,0,false
0.9.6,3,1,0,0,0,1,1,0,185,4,14,0,true
0.9.0,3,1,0,0,0,1,0,0,0,1,4,0,false
0.9.0,1,1,0,0,0,0,11,0,45,2,5,0,false
0.9.6,3,1,1,0,0,0,0,1,185,1,1,0,false
0.9.6,3,1,0,1,0,1,0,0,168,2,7,0,false
0.9.0,3,1,0,0,0,1,1,0,2,1,1,0,false
0.9.6,3,1,0,0,0,0,0,0,168,3,5,0,false
0.9.0,3,1,0,0,0,1,0,0,45,3,7,0,false
0.9.6,1,1,0,0,0,0,3,0,185,1,1,0,true
0.9.6,13,2,2,0,1,0,1,1,185,3,5,6,true
0.9.6,1,1,0,0,0,0,3,0,185,2,2,0,true
0.9.6,3,1,0,0,0,0,0,0,185,2,2,0,true
0.9.0,3,1,0,0,0,1,0,0,0,1,4,0,false
0.9.6,3,1,1,0,0,0,2,0,185,2,5,0,false
0.9.6,3,1,0,0,0,1,0,1,168,2,5,0,true
0.9.6,3,2,1,0,0,0,0,0,185,1,3,0,true
0.9.6,8,4,4,1,0,2,2,1,94,1,1,2,false
0.9.0,18,11,7,0,0,8,6,16,45,2,7,8,false
0.9.6,1,1,0,0,0,0,0,0,185,2,5,0,false
0.9.6,8,7,4,0,0,2,2,1,168,1,4,2,false
0.9.6,3,1,0,0,0,1,0,0,185,2,3,0,true
0.9.0,6,1,1,0,0,1,0,6,45,2,7,1,false
0.9.6,3,1,0,0,0,0,0,1,185,1,3,0,false
0.9.0,14,6,6,0,0,1,2,0,45,2,6,0,false
0.9.6,3,1,0,0,0,1,0,3,185,2,3,0,true
0.9.0,3,1,0,1,0,1,0,0,37,2,6,0,false
0.9.0,3,1,0,0,0,0,0,0,0,1,4,0,false
0.9.6,3,1,0,0,0,0,0,0,168,3,5,0,false
0.9.0,5,5,0,1,0,3,6,0,0,2,13,0,false
0.9.6,5,2,1,0,0,0,0,1,168,2,7,1,false
0.9.0,3,1,0,0,0,1,0,0,37,1,2,0,false
0.9.6,14,5,8,1,0,1,1,5,185,4,13,0,true
0.9.6,3,1,0,0,0,1,0,0,185,2,2,0,true
0.9.0,3,1,0,0,0,1,0,0,45,3,6,0,false
0.9.0,64,27,21,0,0,6,0,2,45,2,4,3,false
0.9.6,3,1,0,0,0,0,0,1,185,2,2,0,true
0.9.0,6,4,2,0,0,1,3,2,37,2,5,0,false
0.9.6,5,1,1,0,0,0,1,0,185,2,2,2,false
0.9.6,3,1,0,0,0,0,0,0,168,2,2,0,false
0.9.0,3,1,1,0,0,0,6,0,45,3,10,0,false
0.9.6,1,1,0,0,0,0,1,0,185,2,4,0,false
0.9.0,26,14,2,0,1,0,0,10,45,3,11,2,false
0.9.0,3,1,1,0,0,0,0,0,37,2,3,0,false
0.9.6,3,1,0,0,0,1,1,0,168,2,5,0,false
0.9.6,5,2,1,0,0,1,2,3,185,3,6,2,true
0.9.6,16,5,4,0,0,1,19,6,185,4,13,6,true
0.9.6,4,2,1,0,0,0,0,0,185,2,3,0,true
0.9.6,4,1,2,0,0,0,1,0,185,2,5,0,false
0.9.6,3,1,0,0,0,1,0,1,94,1,1,0,false
0.9.0,11,3,3,1,0,1,3,1,37,2,5,0,false
0.9.6,3,1,0,0,0,1,0,1,168,3,4,0,false
0.9.0,14,6,2,0,0,4,2,2,45,3,10,2,false
0.9.0,18,4,5,0,1,3,2,2,37,2,4,3,false
0.9.0,28,11,5,0,1,2,4,4,45,3,8,1,false
0.9.0,4,1,0,0,0,0,1,1,37,2,4,0,false
0.9.0,12,2,6,0,0,0,1,1,37,2,4,1,false
0.9.6,3,1,0,0,0,0,1,1,168,2,7,0,false
0.9.0,3,1,0,0,0,1,1,1,0,1,6,0,false
0.9.6,4,2,1,0,0,1,1,1,185,1,2,0,false
0.9.0,3,1,0,0,0,1,1,0,37,2,5,0,false
0.9.6,20,10,1,0,1,4,2,10,185,4,14,1,true
0.9.0,3,1,0,0,0,1,0,2,45,2,7,0,false
0.9.6,3,1,0,0,0,1,0,0,168,3,5,0,false
0.9.6,3,1,1,0,0,0,0,0,94,2,2,0,false
0.9.6,3,1,0,0,0,0,0,0,185,2,5,0,false
0.9.6,3,1,0,0,0,0,0,0,33,3,5,0,false
0.9.0,4,3,1,0,0,1,9,1,45,4,9,1,false
0.9.6,3,1,0,0,0,1,0,1,168,3,5,0,false
0.9.0,15,1,0,0,0,1,0,1,45,3,11,1,false
0.9.0,7,3,2,1,0,2,4,0,45,2,8,0,false
0.9.0,16,4,4,0,0,0,0,1,37,2,4,0,false
0.9.6,3,1,1,0,0,0,1,0,185,2,5,0,false
0.9.6,3,1,0,0,0,1,0,0,185,2,3,0,true
0.9.6,4,1,0,0,0,0,0,2,185,3,10,0,false
0.9.0,6,2,1,0,0,2,1,2,37,3,9,1,false
0.9.6,1,1,0,0,0,0,2,0,185,1,2,0,false
0.9.0,20,11,9,0,0,3,2,7,45,2,6,0,false
0.9.0,15,6,6,0,0,0,0,4,45,2,5,0,false
0.9.0,3,1,0,0,0,0,0,0,37,1,2,0,false
0.9.6,25,7,8,0,1,1,2,4,185,1,2,2,true
0.9.6,5,3,1,0,0,1,0,3,168,1,1,3,true
0.9.0,3,3,0,0,0,0,10,2,45,3,7,0,false
0.9.6,27,11,3,2,0,4,0,4,168,3,6,2,false
0.9.0,7,4,2,0,0,0,0,1,0,2,9,0,false
0.9.6,3,1,0,0,0,0,0,1,168,3,5,0,false
0.9.0,3,1,0,0,0,1,0,1,45,2,10,0,false
0.9.6,3,2,0,1,0,1,2,0,185,2,2,0,false
0.9.0,1,1,0,0,0,0,0,0,45,2,5,0,false
0.9.6,9,3,2,0,0,2,1,1,185,4,16,0,false
0.9.6,4,1,0,0,0,0,0,1,168,3,4,0,false
0.9.0,3,1,0,0,0,1,5,0,45,3,11,0,false
0.9.6,4,2,1,0,0,0,1,1,185,4,13,0,true
0.9.0,3,1,0,0,0,1,0,0,0,1,4,0,false
0.9.6,3,1,0,0,0,1,2,0,185,2,5,0,false
0.9.0,1,1,0,0,0,0,3,0,45,2,5,0,false
0.9.0,4,1,1,0,0,1,0,3,45,2,5,0,false
0.9.0,10,5,4,0,0,2,1,3,45,3,8,1,false
0.9.6,18,11,7,0,0,8,1,3,185,2,2,8,true
0.9.6,3,2,0,1,0,0,10,0,94,1,1,0,false
0.9.6,3,1,0,0,0,1,0,0,185,2,4,0,false
0.9.0,5,2,2,0,0,1,1,2,37,1,2,2,false
0.9.0,3,1,0,0,0,0,2,1,45,2,6,0,false
0.9.6,3,1,0,0,0,1,0,0,185,4,7,0,false
0.9.6,3,1,0,0,0,0,0,0,185,2,5,0,false
0.9.0,3,1,0,0,0,0,0,1,37,1,2,0,false
0.9.6,11,6,1,0,0,1,0,0,168,3,5,0,false
0.9.0,10,2,1,0,0,0,0,0,37,2,3,10,false
0.9.0,1,1,0,0,0,0,2,0,37,2,2,0,false
0.9.0,4,1,0,0,0,0,0,1,45,2,4,1,false
0.9.6,3,1,0,0,0,0,0,0,168,3,5,0,false
0.9.6,3,1,0,0,0,1,1,0,94,2,2,0,false
0.9.0,3,1,0,0,0,1,1,1,37,2,4,0,false
0.9.6,1,1,0,0,0,0,0,0,185,2,4,0,false
0.9.6,3,1,0,0,0,1,8,0,168,2,7,0,false
0.9.0,9,7,0,0,0,3,4,5,45,3,13,1,false
0.9.6,3,1,0,0,0,0,11,0,185,1,1,0,true
0.9.6,3,1,0,0,0,1,0,1,185,3,10,0,false
0.9.6,11,4,6,1,0,1,0,2,168,3,3,3,false
0.9.6,4,1,2,0,0,0,0,0,168,2,2,0,false
0.9.6,3,1,0,0,0,1,0,0,185,1,1,0,false
0.9.0,1,1,0,0,0,0,3,0,45,2,5,0,false
0.9.0,4,1,0,0,0,0,0,2,45,3,13,0,false
0.9.6,3,1,0,0,0,0,0,0,185,2,4,0,false
0.9.6,20,11,0,0,1,1,78,3,185,4,19,2,true
0.9.0,3,1,0,0,0,0,0,0,0,1,5,0,false
0.9.6,15,2,0,0,0,0,0,0,168,3,6,0,false
0.9.0,3,1,0,0,0,0,0,0,0,1,5,0,false
0.9.0,5,5,0,0,0,1,2,4,37,2,6,3,false
0.9.0,32,10,16,0,0,0,2,2,37,2,8,4,false
0.9.6,3,1,0,0,0,0,0,0,185,2,5,0,false
0.9.6,3,1,0,0,0,1,0,0,185,2,4,0,false
0.9.6,1,1,0,0,0,0,0,0,185,2,5,0,false
0.9.6,1,1,0,0,0,0,0,0,185,2,5,0,false
0.9.6,3,1,0,0,0,1,0,1,185,2,3,0,true
0.9.6,1,1,0,0,0,0,3,0,185,2,2,0,true
0.9.6,3,1,0,0,0,0,0,0,168,3,5,0,false
0.9.6,3,1,0,0,0,0,0,3,185,2,3,0,true
0.9.6,3,2,0,0,0,1,0,0,185,2,4,0,false
0.9.0,3,3,0,0,0,1,1,0,45,1,4,0,false
0.9.0,3,1,0,0,0,0,0,3,45,2,7,0,false
0.9.0,6,1,1,0,0,1,1,1,37,2,4,0,false
0.9.6,4,2,0,0,0,2,0,2,185,1,1,0,false
0.9.0,3,1,0,0,0,0,0,0,45,2,5,0,false
0.9.0,14,5,5,0,0,1,1,1,45,2,6,2,false
0.9.6,11,5,4,0,0,0,0,5,168,1,2,1,false
0.9.0,19,7,6,2,1,3,4,0,45,3,11,8,false
0.9.6,3,1,0,0,0,0,0,1,185,1,3,0,true
0.9.0,8,5,1,0,0,4,0,1,37,1,2,0,false
0.9.0,4,1,0,0,0,1,2,1,45,3,10,0,false
0.9.0,3,1,0,0,0,1,0,0,0,2,9,0,false
0.9.0,3,1,0,0,0,1,0,3,45,2,7,0,false
0.9.6,5,2,1,0,0,1,2,0,185,1,3,0,false
0.9.6,5,1,2,0,0,0,0,0,168,1,1,0,false
0.9.0,3,1,0,0,0,1,0,0,0,1,4,0,false
0.9.6,3,1,0,0,0,0,0,0,168,3,5,0,false
0.9.0,3,1,0,0,0,1,1,0,45,2,7,0,false
0.9.0,3,1,0,0,0,1,1,0,45,1,4,0,false
0.9.0,3,1,0,0,0,1,0,0,0,1,4,0,false
0.9.0,3,1,0,0,0,1,2,0,45,2,8,0,false
0.9.6,8,4,3,0,0,1,1,1,168,1,2,3,false
0.9.0,5,4,1,0,0,2,0,3,45,4,9,2,false
0.9.6,6,3,3,0,0,1,1,1,185,2,2,0,false
0.9.0,5,1,0,0,0,1,0,0,45,3,7,0,false
0.9.6,3,1,0,0,0,0,0,1,168,1,1,0,false
0.9.6,3,1,0,0,0,1,0,1,185,3,10,0,false
0.9.0,3,1,0,0,0,0,0,0,45,3,7,0,false
0.9.0,4,1,2,0,0,0,0,0,37,2,6,0,false
0.9.0,3,1,1,0,0,0,1,0,37,1,2,0,false
0.9.6,15,8,8,0,0,1,1,8,185,3,9,2,false
0.9.6,1,1,0,0,0,0,2,0,185,1,2,0,false
0.9.0,24,6,4,0,0,2,1,8,45,2,6,10,false
0.9.0,3,1,1,0,0,0,0,0,45,2,5,0,false
0.9.6,3,1,0,0,0,1,17,0,185,4,13,0,true
0.9.6,20,11,8,0,0,0,0,10,168,2,2,6,false
0.9.6,3,1,0,0,0,1,0,1,185,2,3,0,true
0.9.6,3,1,0,0,0,1,2,0,185,2,5,0,false
0.9.6,4,2,1,0,0,1,4,1,168,3,3,0,false
0.9.6,1,1,0,0,0,0,0,0,185,2,5,0,false
0.9.6,10,8,9,0,0,1,1,5,185,3,9,3,false
0.9.6,4,3,0,0,0,2,1,2,168,2,7,0,false
0.9.6,4,3,0,0,0,2,0,1,168,3,3,0,false
0.9.0,3,1,0,0,0,1,0,1,45,3,13,0,false
0.9.0,3,2,1,0,0,0,0,1,0,2,6,0,false
0.9.6,3,1,0,0,0,1,4,0,168,1,2,0,false
0.9.0,6,4,2,0,0,2,0,1,45,1,4,1,false
0.9.6,3,1,0,0,0,1,0,0,185,1,1,0,false
0.9.6,30,8,8,2,1,0,0,3,185,1,1,6,false
0.9.6,14,3,5,0,1,1,2,3,185,4,5,1,false
0.9.0,3,1,0,0,0,0,0,3,45,2,7,0,false
0.9.0,3,1,0,0,0,0,0,0,45,3,7,0,false
0.9.0,1,1,0,0,0,0,0,0,45,3,8,0,false
0.9.6,4,1,1,1,0,1,1,1,168,3,6,3,false
0.9.6,20,8,10,1,1,3,1,5,94,1,1,3,false
0.9.0,4,5,0,0,0,2,1,2,37,1,2,1,false
0.9.0,4,1,0,0,0,0,0,1,37,2,3,0,false
0.9.6,3,1,0,0,0,1,0,0,185,2,2,0,true
0.9.0,3,1,0,0,0,1,0,0,37,2,6,0,false
0.9.6,9,6,2,0,0,3,2,4,185,4,19,0,true
0.9.0,3,1,0,0,0,1,0,0,45,2,4,0,false
0.9.0,3,1,0,0,0,1,1,3,45,2,5,0,false
0.9.6,3,2,0,0,0,1,0,0,185,2,4,0,false
0.9.0,5,3,0,0,0,3,0,0,45,2,6,0,false
0.9.6,3,1,0,0,0,1,1,1,94,3,4,0,false
0.9.0,3,1,0,0,0,1,0,0,37,2,2,0,false
0.9.6,1,1,0,0,0,0,5,0,185,2,4,0,false
0.9.0,3,1,0,0,0,1,9,0,45,3,8,0,false
0.9.6,3,1,0,0,0,0,1,1,168,1,1,0,false
0.9.0,28,16,7,0,1,1,0,2,37,1,2,5,false
0.9.0,3,1,0,0,0,0,0,3,45,2,7,0,false
0.9.6,3,1,0,0,0,0,0,0,168,3,5,0,false
0.9.0,24,2,1,0,0,1,1,1,45,2,6,56,false
0.9.0,6,3,2,0,0,1,0,2,0,1,8,0,false
0.9.6,3,1,0,0,0,1,0,1,168,2,3,0,false
0.9.0,3,1,0,0,0,1,1,0,45,3,11,0,false
0.9.0,3,1,0,0,0,1,0,0,45,3,11,0,false
0.9.6,7,3,1,0,0,1,0,0,168,3,5,0,false
0.9.0,3,1,0,0,0,0,0,0,45,2,5,0,false
0.9.0,3,1,1,0,0,0,0,0,37,2,3,0,false
0.9.6,3,1,0,0,0,1,0,0,185,1,1,0,false
0.9.0,17,10,3,1,0,0,0,5,45,1,4,3,false
0.9.0,4,1,0,0,0,0,0,2,45,3,13,0,false
0.9.0,4,2,0,0,0,0,0,1,37,2,3,0,false
0.9.0,1,1,0,0,0,0,0,0,45,3,8,0,false
0.9.6,16,5,6,0,0,0,0,0,168,2,3,1,false
0.9.6,17,3,7,0,0,1,1,3,168,2,6,1,false
0.9.6,12,6,3,0,0,1,2,7,185,2,2,2,true
0.9.6,18,6,3,0,2,0,0,0,168,1,2,4,false
0.9.6,3,1,0,0,0,1,0,0,168,2,4,0,false
0.9.6,12,1,1,0,1,0,0,6,185,4,14,0,true
0.9.6,1,1,0,0,0,0,1,0,168,1,1,0,false
0.9.0,3,1,0,0,0,1,0,0,0,1,4,0,false
0.9.0,4,2,1,0,0,1,0,1,37,2,4,0,false
0.9.0,4,3,0,0,0,2,0,2,37,1,2,1,false
0.9.0,1,1,0,0,0,0,1,0,0,1,4,0,false
0.9.0,1,1,0,0,0,0,0,0,45,3,6,0,false
0.9.0,3,1,0,0,0,1,0,0,37,2,4,0,false
0.9.0,1,1,0,0,0,0,2,0,45,2,5,0,false
0.9.6,12,3,8,0,0,0,0,2,185,2,3,0,true
0.9.6,3,1,0,0,0,1,17,3,185,3,9,0,false
0.9.6,6,5,0,0,0,0,0,0,185,2,2,0,false
0.9.6,16,6,0,0,0,6,1,2,94,2,2,1,false
0.9.6,4,1,1,0,0,0,0,1,185,3,10,0,false
0.9.6,4,2,1,0,0,1,4,1,185,4,7,0,false
0.9.0,4,1,0,0,0,0,0,2,45,3,13,0,false
0.9.6,34,9,14,0,0,1,4,18,185,4,7,3,false
0.9.6,12,4,1,0,1,1,1,1,185,3,9,0,false
0.9.6,4,1,0,0,0,0,0,1,94,1,1,0,false
0.9.6,3,1,1,0,0,0,0,0,168,1,2,0,false
0.9.6,3,1,0,0,0,1,0,1,185,3,10,0,false
0.9.6,3,1,0,0,0,1,0,1,94,1,2,0,false
0.9.6,1,1,0,0,0,0,2,0,185,2,2,0,true
0.9.0,3,1,0,0,0,1,0,0,0,1,5,0,false
0.9.0,9,4,1,0,0,0,1,5,37,2,3,0,false
0.9.6,3,1,0,0,0,1,0,1,185,1,3,1,true
0.9.0,6,3,3,0,0,1,3,0,0,2,6,0,false
0.9.0,6,6,2,0,0,3,1,1,45,3,10,1,false
0.9.0,3,1,0,0,0,1,5,0,0,1,6,0,false
0.9.0,6,3,1,0,0,3,0,3,37,3,9,1,false
0.9.6,8,4,5,0,0,1,4,1,168,2,7,0,false
0.9.6,3,1,0,0,0,0,0,0,185,2,4,0,false
0.9.6,3,1,0,0,0,0,0,0,185,2,4,0,false
0.9.0,4,3,0,0,0,2,1,0,37,1,2,0,false
0.9.0,3,1,0,0,0,1,0,1,45,3,5,0,false
0.9.0,1,1,0,0,0,0,0,0,45,3,8,0,false
0.9.0,9,2,0,0,1,1,16,2,45,3,11,0,false
0.9.0,7,2,0,0,0,0,1,3,37,2,3,0,false
0.9.0,4,2,1,0,0,1,3,0,45,3,10,0,false
0.9.6,3,1,0,0,0,0,0,0,185,2,5,0,false
0.9.0,3,1,0,0,0,1,0,1,37,3,6,0,false
0.9.0,3,1,0,0,0,0,0,0,45,3,7,0,false
0.9.0,3,1,0,0,0,1,3,0,45,2,6,0,false
0.9.6,2,1,0,0,0,0,0,0,185,2,5,0,false
0.9.6,3,1,0,0,0,1,0,0,185,2,4,0,false
0.9.6,4,2,2,0,0,0,3,0,185,2,4,0,false
0.9.6,4,1,0,0,0,0,0,2,168,3,4,0,false
0.9.6,3,1,0,0,0,1,0,0,185,1,1,0,false
0.9.6,5,2,1,0,0,1,3,0,168,2,2,0,false
0.9.6,4,2,0,1,0,1,0,0,94,1,1,0,false
0.9.0,5,3,0,1,0,3,1,3,37,2,5,0,false
0.9.6,3,1,0,0,0,0,1,1,168,1,1,0,false
0.9.0,3,1,0,0,0,1,0,2,45,3,6,0,false
0.9.6,3,1,0,0,0,1,0,0,185,1,1,0,false
0.9.0,6,2,1,0,0,0,1,4,45,2,6,1,false
0.9.6,3,1,0,0,0,0,1,0,168,1,4,1,false
0.9.0,4,1,0,0,0,1,0,0,45,2,5,0,false
0.9.0,3,1,0,0,0,1,1,1,37,2,4,0,false
0.9.0,1,1,0,0,0,0,2,0,45,1,4,0,false
0.9.6,3,3,0,0,0,0,10,4,185,4,14,1,true
0.9.6,4,2,0,0,0,2,6,1,168,2,7,0,false
0.9.0,3,1,0,0,0,1,0,0,45,1,4,0,false
0.9.0,3,1,0,0,0,1,2,0,45,1,4,0,false
0.9.0,3,1,1,0,0,0,0,0,0,2,12,0,false
0.9.6,3,1,1,0,0,0,0,0,185,4,7,0,false
0.9.6,5,3,1,0,0,0,1,2,185,4,19,0,true
0.9.6,3,1,0,0,0,1,0,0,185,3,5,0,false
0.9.6,10,2,1,0,1,1,0,1,94,1,1,0,false
0.9.6,3,1,0,0,0,1,0,1,168,2,3,0,false
0.9.0,3,1,0,0,0,1,0,1,45,2,7,0,false
0.9.0,3,1,0,0,0,1,2,1,45,2,8,0,false
0.9.0,2,1,0,0,0,0,0,0,37,2,3,0,false
0.9.6,3,1,0,0,0,1,4,0,185,4,14,0,true
0.9.0,3,1,0,0,0,0,1,1,45,2,6,0,false
0.9.0,10,2,4,0,0,0,0,3,37,2,2,1,false
0.9.6,4,3,1,0,0,0,3,1,185,4,14,0,true
0.9.0,3,1,0,0,0,0,0,0,37,2,2,0,false
0.9.0,4,2,0,0,0,2,1,0,45,1,5,0,false
0.9.6,35,10,7,1,0,2,1,1,185,1,1,9,false
0.9.0,3,1,0,0,0,0,0,0,45,3,7,0,false
0.9.6,12,3,4,0,0,0,1,9,185,4,14,0,true
0.9.0,13,7,0,0,0,6,0,6,45,2,6,0,false
0.9.0,6,4,1,0,0,0,2,0,45,1,4,0,false
0.9.0,3,1,0,0,0,1,0,1,45,3,5,1,false
0.9.0,3,1,0,0,0,0,2,1,45,3,8,0,false
0.9.0,3,1,1,0,0,0,1,0,37,1,2,0,false
0.9.6,3,1,0,0,0,1,0,0,185,4,14,0,true
0.9.6,5,1,2,0,0,0,41,0,185,4,14,0,true
0.9.6,74,37,18,1,1,11,6,14,185,2,2,7,true
0.9.0,1,1,0,0,0,0,2,0,45,2,5,0,false
0.9.6,3,1,0,0,0,1,9,1,185,4,19,0,true
0.9.6,8,3,1,3,0,3,2,4,168,2,7,0,false
0.9.0,3,1,0,0,0,1,0,0,0,1,4,0,false
0.9.6,3,1,0,0,0,1,0,0,185,1,1,0,false
0.9.0,10,3,1,0,1,0,3,1,45,2,9,1,false
0.9.6,3,1,0,0,0,1,0,1,168,2,3,0,false
0.9.6,8,2,0,0,1,0,0,2,185,2,2,1,true
0.9.6,3,1,0,0,0,1,0,1,168,2,2,0,false
0.9.6,3,1,1,0,0,0,0,0,168,3,3,0,false
0.9.0,3,1,0,0,0,1,0,1,37,1,2,0,false
0.9.0,3,1,0,0,0,1,11,1,45,2,8,0,false
0.9.0,8,4,3,0,0,1,3,2,37,3,6,1,false
0.9.6,3,1,0,0,0,0,0,1,168,3,5,0,false
0.9.6,3,1,0,0,0,1,0,0,168,3,4,0,false
0.9.6,3,1,0,0,0,0,0,1,168,1,1,0,false
0.9.6,9,3,3,0,0,1,6,0,168,1,2,0,false
0.9.0,3,1,0,0,0,1,0,0,0,1,4,0,false
0.9.6,76,33,19,0,0,1,3,6,185,2,4,7,false
0.9.6,3,3,0,0,0,1,1,0,185,4,19,0,true
0.9.6,3,1,0,0,0,0,0,0,185,2,4,0,false
0.9.6,15,5,4,0,1,2,3,0,185,4,5,1,false
0.9.6,1,1,0,0,0,0,1,0,168,1,1,0,false
0.9.0,4,1,1,0,0,0,0,1,45,3,13,0,false
0.9.0,3,2,0,0,0,1,3,0,0,2,6,0,false
0.9.6,4,1,0,0,0,1,0,2,185,2,2,0,true
0.9.0,3,1,0,0,0,1,0,0,37,1,2,0,false
0.9.6,3,1,0,0,0,1,0,0,168,3,3,0,false
0.9.6,18,7,4,2,1,4,0,4,94,1,1,3,false
0.9.0,16,6,6,3,0,2,0,6,0,1,7,0,false
0.9.0,3,1,0,0,0,1,0,0,0,1,4,0,false
0.9.6,3,1,1,0,0,0,1,0,168,3,3,0,false
0.9.6,3,1,0,0,0,1,0,0,185,1,1,0,false
0.9.6,1,1,0,0,0,0,1,0,185,2,2,0,false
0.9.6,12,4,5,2,0,0,0,1,185,2,2,0,true
0.9.6,14,6,5,0,0,1,1,3,185,1,1,2,false
0.9.6,3,2,1,0,0,0,1,0,185,2,5,0,false
0.9.0,3,1,0,0,0,1,0,0,37,2,3,0,false
0.9.0,15,1,10,0,0,0,0,1,45,2,6,0,false
0.9.6,3,1,0,0,0,1,0,0,168,1,1,0,false
0.9.6,8,2,0,0,1,0,0,2,185,2,2,1,true
0.9.6,3,2,0,0,0,0,9,1,168,3,3,0,false
0.9.6,19,4,2,0,0,3,1,8,185,1,2,3,true
0.9.0,3,1,0,0,0,0,0,0,45,3,7,0,false
0.9.6,9,3,3,0,0,1,0,0,168,1,1,0,false
0.9.6,3,1,0,0,0,0,0,0,185,2,4,0,false
0.9.6,15,1,10,0,0,0,0,1,185,3,6,0,true
0.9.6,3,1,0,0,0,1,0,0,185,2,5,0,false
0.9.0,9,5,5,0,0,2,4,3,45,2,7,0,false
0.9.0,3,1,0,0,0,1,0,0,37,2,3,0,false
0.9.0,9,1,1,0,1,0,0,2,0,1,5,0,false
0.9.6,3,1,1,0,0,0,1,0,185,4,16,0,false
0.9.0,50,23,27,2,0,4,2,4,0,1,8,11,false
0.9.6,3,1,0,0,0,0,0,0,168,3,5,0,false
0.9.6,1,1,0,0,0,0,0,0,185,2,5,0,false
0.9.6,3,1,0,0,0,1,0,0,168,2,5,0,false
0.9.0,3,1,0,0,0,0,0,0,0,1,6,0,false
0.9.6,8,2,0,0,1,1,0,2,185,2,2,1,true
0.9.6,5,2,2,0,0,0,0,0,168,1,1,0,false
0.9.6,3,1,0,0,0,1,0,0,168,3,5,0,false
0.9.6,3,1,0,0,0,1,1,1,185,3,10,0,false
0.9.0,3,1,0,0,0,0,0,0,45,1,3,0,false
0.9.0,4,1,1,0,0,1,7,0,45,1,4,0,false
0.9.6,3,1,0,0,0,0,0,0,185,2,5,0,false
0.9.6,4,2,1,0,0,0,0,0,168,2,2,0,false
0.9.0,3,1,1,0,0,0,0,0,37,2,3,0,false
0.9.6,3,1,0,0,0,1,0,0,185,4,19,0,true
0.9.6,3,1,0,0,0,1,0,1,185,2,3,0,true
0.9.0,3,1,0,0,0,1,0,0,0,1,4,0,false
0.9.6,3,1,0,0,0,1,0,0,94,1,2,0,false
0.9.6,10,2,0,0,1,1,0,3,185,1,1,0,true
0.9.6,5,5,0,0,0,3,0,2,185,4,14,2,true
0.9.0,2,1,0,0,0,0,0,0,45,2,4,0,false
0.9.0,9,3,0,0,1,1,0,2,45,2,5,1,false
0.9.0,3,2,0,0,0,1,6,0,45,2,7,0,false
0.9.6,3,1,0,0,0,1,1,0,185,4,19,0,true
0.9.0,3,1,0,0,0,1,0,0,0,1,6,0,false
0.9.6,10,2,1,0,1,1,0,3,94,1,1,0,false
0.9.0,3,1,0,0,0,1,0,1,45,2,6,0,false
0.9.0,3,1,0,0,0,1,3,2,45,2,6,1,false
0.9.6,3,1,0,0,0,1,0,0,185,1,2,0,false
0.9.6,3,1,1,0,0,0,0,0,168,1,2,0,false
0.9.0,5,5,0,0,0,3,2,0,37,3,9,1,false
0.9.0,3,1,0,0,0,1,1,0,37,3,6,0,false
0.9.6,3,1,0,0,0,0,0,0,168,3,5,0,false
0.9.0,3,1,0,0,0,1,0,0,45,3,11,0,false
0.9.0,3,1,0,0,0,0,0,1,37,2,4,0,false
0.9.0,3,1,0,0,0,1,0,1,45,2,7,0,false
0.9.0,19,4,3,0,1,2,2,3,45,2,5,1,false
0.9.6,3,1,0,0,0,0,0,1,185,3,9,0,false
0.9.0,3,1,0,0,0,1,6,0,45,2,6,0,false
0.9.0,3,1,0,0,0,0,0,0,0,1,5,0,false
0.9.6,3,1,0,0,0,0,0,1,168,1,1,0,false
0.9.6,3,1,0,0,0,1,0,0,185,2,4,0,false
0.9.6,3,1,0,0,0,0,0,0,185,2,4,0,false
0.9.0,3,1,0,0,0,1,0,0,37,3,9,0,false
0.9.6,20,9,3,0,2,2,3,2,185,2,3,3,false
0.9.0,9,3,0,0,1,2,0,2,45,2,5,1,false
0.9.6,3,1,0,0,0,1,0,0,168,3,5,1,false
0.9.0,3,1,0,0,0,1,1,1,45,3,5,0,false
0.9.0,6,1,0,0,0,0,2,3,45,2,6,0,false
0.9.0,9,4,6,0,0,0,0,1,37,2,6,0,false
0.9.6,30,14,7,0,1,2,1,11,185,2,2,6,true
0.9.6,3,1,0,0,0,1,0,0,94,2,2,0,false
0.9.6,42,49,4,0,0,24,3,3,185,1,1,11,false
0.9.0,3,2,1,0,0,0,0,1,45,1,4,0,false
0.9.0,3,1,0,0,0,1,0,1,45,2,4,0,false
0.9.6,3,1,0,0,0,1,1,0,168,2,2,0,false
0.9.6,6,7,0,0,0,1,1,4,185,2,5,1,false
0.9.6,31,18,1,0,0,0,1,1,185,2,8,1,false
0.9.6,3,1,0,0,0,1,0,1,168,1,1,0,false
0.9.6,11,3,3,1,0,1,3,0,168,1,2,0,false
0.9.6,3,1,0,0,0,0,0,0,185,1,1,0,false
0.9.0,4,2,0,0,0,2,0,0,37,3,6,0,false
0.9.0,5,1,1,0,0,1,0,0,45,1,4,1,false
0.9.6,3,1,0,0,0,0,0,0,168,3,5,0,false
0.9.0,14,4,5,0,0,0,1,2,37,1,2,5,false
0.9.0,2,1,0,0,0,0,1,0,45,2,6,0,false
0.9.0,2,1,0,0,0,0,0,0,37,2,3,0,false
0.9.6,8,3,2,0,0,2,1,5,185,3,6,2,true
0.9.6,6,2,3,1,0,0,1,4,185,3,6,1,true
0.9.0,5,2,1,0,0,1,5,0,45,3,10,0,false
0.9.6,5,2,1,0,0,0,1,4,185,4,13,0,true
0.9.6,7,4,3,0,0,2,5,4,185,1,1,0,false
0.9.6,4,1,0,0,0,0,1,2,185,3,10,0,false
0.9.0,10,1,6,0,0,0,0,1,37,1,2,0,false
0.9.0,20,8,6,0,0,2,2,26,45,2,6,9,false
0.9.0,3,1,0,0,0,0,0,0,0,1,4,0,false
0.9.0,5,1,1,0,0,1,0,2,0,1,5,0,false
0.9.6,3,1,0,0,0,1,1,1,185,3,10,0,false
0.9.0,16,5,1,0,1,1,4,6,45,3,13,0,false
0.9.6,3,1,0,0,0,1,0,1,185,2,3,0,true
0.9.6,3,1,0,1,0,1,4,0,94,2,2,0,false
0.9.6,3,1,1,0,0,0,0,0,185,2,2,0,false
0.9.6,3,1,0,0,0,0,0,3,185,2,3,0,true
0.9.0,2,1,0,0,0,0,1,0,0,1,5,0,false
0.9.0,3,1,0,0,0,1,0,0,0,1,8,0,false
0.9.6,3,1,0,0,0,1,0,1,94,3,4,0,false
0.9.0,3,1,0,0,0,0,0,0,45,3,7,0,false
0.9.0,8,3,2,0,0,2,1,0,45,3,8,1,false
0.9.6,13,3,1,0,1,1,0,3,185,2,4,0,false
0.9.6,3,1,0,0,0,0,0,1,168,1,1,0,false
0.9.6,37,12,22,0,0,2,0,8,168,1,2,2,false
0.9.6,1,1,0,0,0,0,3,0,185,2,2,0,false
0.9.0,1,1,0,0,0,0,0,0,45,3,6,0,false
0.9.6,10,2,1,0,1,1,1,6,185,2,3,0,true
0.9.0,17,6,4,0,0,2,0,2,37,2,2,0,false
0.9.0,3,1,0,0,0,0,0,0,45,3,7,0,false
0.9.0,3,1,0,0,0,1,0,0,0,1,4,0,false
0.9.6,4,1,0,0,0,1,0,1,168,1,1,2,false
0.9.6,4,3,0,0,0,2,0,1,168,1,2,1,false
0.9.0,3,1,0,0,0,1,0,0,0,1,4,0,false
0.9.6,3,1,0,0,0,1,0,0,185,1,1,0,false
0.9.0,3,1,0,1,0,0,5,1,37,1,2,0,false
0.9.6,3,1,0,0,0,0,0,0,168,3,5,0,false
0.9.6,5,3,0,0,0,3,2,2,168,2,2,0,false
0.9.6,3,1,0,0,0,0,0,0,185,2,5,0,false
0.9.0,5,2,2,4,0,1,0,0,0,1,8,0,false
0.9.6,3,1,0,0,0,0,0,1,185,1,2,0,false
0.9.6,3,1,0,0,0,1,0,0,168,1,2,0,false
0.9.6,3,1,0,0,0,0,0,0,168,3,5,0,false
0.9.6,10,3,3,1,0,2,1,4,168,1,3,3,false
0.9.6,3,1,0,0,0,1,0,0,168,2,2,0,false
0.9.0,31,17,5,0,1,1,1,7,37,1,2,3,false
0.9.6,20,4,3,0,2,1,0,7,185,4,19,0,false
0.9.0,4,1,0,0,0,0,0,2,45,3,13,0,false
0.9.6,4,1,0,0,0,0,0,2,185,3,10,0,false
0.9.6,3,1,0,0,0,0,0,0,185,2,4,0,false
0.9.6,2,1,0,0,0,0,1,0,185,3,6,0,true
0.9.6,4,1,0,0,0,1,0,0,185,1,1,0,false
0.9.0,9,2,0,0,1,1,1,2,45,3,7,1,false
0.9.6,3,1,0,0,0,0,0,0,185,2,5,0,false
0.9.6,1,1,0,0,0,0,0,0,185,2,4,0,false
0.9.6,3,1,1,0,0,0,0,0,185,3,5,0,true
0.9.0,3,3,0,0,0,1,0,0,0,1,7,0,false
0.9.0,16,5,3,0,1,1,1,1,37,2,2,0,false
0.9.6,3,1,0,0,0,0,5,2,168,2,7,0,false
0.9.0,1,1,0,0,0,0,0,0,45,3,8,0,false
0.9.0,3,1,1,0,0,0,0,0,37,2,3,0,false
0.9.0,4,2,0,0,0,2,2,1,37,2,4,0,false
0.9.0,3,1,0,0,0,1,0,1,45,3,13,0,false
0.9.0,3,1,0,0,0,0,45,1,45,3,13,0,false
0.9.6,3,1,0,0,0,1,0,1,185,2,3,0,true
0.9.6,3,1,0,0,0,1,0,0,185,2,5,0,false
0.9.6,16,5,1,0,1,1,1,1,33,3,5,1,false
0.9.6,13,1,1,0,1,1,1,4,185,4,14,0,true
0.9.6,3,1,0,0,0,0,0,0,168,3,5,0,false
0.9.6,3,1,0,0,0,1,0,0,168,1,1,0,false
0.9.0,3,1,0,0,0,0,0,2,45,2,6,0,false
0.9.6,1,1,0,0,0,0,0,0,185,2,5,0,false
0.9.0,23,8,11,6,0,2,0,2,0,1,5,0,false
0.9.0,34,16,12,0,1,0,13,16,45,3,13,3,false
0.9.0,1,1,0,0,0,0,0,0,45,3,8,0,false
0.9.0,3,1,0,0,0,0,1,1,37,2,3,0,false
0.9.6,1,1,0,0,0,0,1,0,185,1,1,0,false
0.9.6,39,24,14,0,0,1,2,16,168,1,1,2,false
0.9.6,3,1,0,0,0,1,1,1,185,3,10,0,false
0.9.6,3,1,0,0,0,0,0,0,168,3,5,0,false
0.9.6,4,2,2,0,0,0,1,0,168,2,7,0,false
0.9.0,4,3,0,0,0,2,3,2,0,1,6,0,false
0.9.6,3,1,0,0,0,1,0,0,185,1,1,0,false
0.9.6,12,4,4,0,0,3,1,1,185,2,2,2,true
0.9.6,22,5,5,0,0,1,2,7,168,1,1,8,false
0.9.6,33,13,14,0,2,1,0,4,185,1,3,2,false
0.9.6,3,1,0,0,0,0,45,1,185,4,14,0,true
0.9.0,3,1,0,0,0,1,5,1,45,3,10,0,false
0.9.0,3,1,0,0,0,1,1,1,45,3,13,0,false
0.9.0,3,1,0,0,0,0,0,1,37,2,4,0,false
0.9.6,26,11,1,0,0,0,0,9,185,3,6,0,true
0.9.6,3,1,0,0,0,1,0,0,168,3,3,0,false
0.9.0,6,2,2,0,0,1,1,0,45,1,4,1,false
0.9.6,5,3,1,0,0,2,0,2,168,1,1,0,false
0.9.0,3,1,0,0,0,0,1,0,37,3,9,0,false
0.9.0,33,16,12,0,0,1,2,7,0,2,13,7,false
0.9.0,18,4,7,3,0,1,91,6,45,3,8,1,false
0.9.6,3,1,0,0,0,0,0,0,185,2,4,0,false
0.9.0,3,2,0,0,0,1,2,0,45,3,11,0,false
0.9.6,3,1,1,0,0,0,0,0,168,1,2,0,false
0.9.0,3,1,0,0,0,1,0,0,37,2,4,0,false
0.9.6,34,16,12,0,1,0,13,14,185,4,14,3,true
0.9.0,4,2,0,0,0,0,0,0,37,2,6,0,false
0.9.6,19,4,3,0,1,2,2,3,185,3,10,1,true
0.9.6,3,1,0,0,0,1,0,0,168,3,3,0,false
0.9.0,3,1,0,0,0,1,0,0,0,1,4,0,false
0.9.6,1,1,0,0,0,0,0,0,185,2,5,0,false
0.9.0,3,1,0,0,0,0,0,1,37,2,2,0,false
0.9.0,3,1,0,0,0,0,0,0,0,1,5,0,false
0.9.6,3,1,0,0,0,1,0,0,185,2,5,0,false
0.9.6,3,1,0,0,0,0,0,0,185,2,5,0,false
0.9.6,8,2,0,0,1,0,0,2,185,2,2,1,true
0.9.6,29,13,5,1,0,2,1,7,185,1,1,13,false
0.9.0,4,2,0,0,0,0,0,0,37,2,2,2,false
0.9.6,3,1,0,0,0,1,1,1,185,2,4,0,false
0.9.0,3,1,0,0,0,1,2,0,0,1,5,0,false
0.9.6,3,1,1,0,0,0,4,0,168,2,7,0,false
0.9.0,9,1,0,0,0,0,0,6,37,2,3,0,false
0.9.0,10,3,2,0,1,1,0,9,45,2,7,3,false
0.9.0,11,4,2,0,1,1,1,0,37,2,3,2,false
0.9.6,11,5,3,0,0,1,2,2,185,4,13,0,true
0.9.6,3,1,0,0,0,1,3,0,168,2,3,0,false
0.9.6,9,3,0,0,1,1,0,2,185,1,1,1,false
0.9.6,3,1,1,0,0,0,1,0,168,1,3,0,false
0.9.0,28,11,12,0,0,3,4,3,37,2,3,6,false
0.9.6,3,1,0,8,0,1,0,0,20,1,1,0,false
0.9.0,3,1,0,0,0,1,0,2,45,3,10,1,false
0.9.6,1,1,0,0,0,0,9,0,185,2,4,0,false
0.9.0,3,1,0,0,0,1,0,2,45,2,7,0,false
0.9.6,3,1,0,0,0,1,5,0,185,4,14,0,true
0.9.0,3,1,0,0,0,1,0,0,0,1,4,0,false
0.9.0,6,4,0,1,0,4,1,0,37,1,2,0,false
0.9.0,9,3,3,1,0,2,1,1,45,2,8,0,false
0.9.0,3,1,0,0,0,0,0,0,45,2,5,0,false
0.9.6,3,1,0,0,0,0,0,1,168,1,1,0,false
0.9.6,3,1,0,0,0,1,0,0,168,2,5,0,false
0.9.0,3,1,0,0,0,1,0,0,37,2,2,0,false
0.9.6,6,3,2,0,0,1,0,2,94,1,1,0,false
0.9.0,1,1,0,0,0,0,0,0,45,3,8,0,false
0.9.6,8,4,2,0,0,2,17,1,185,4,13,0,true
0.9.6,10,1,2,0,0,0,1,0,185,2,2,6,false
0.9.0,9,3,1,0,1,2,1,1,37,2,3,1,false
0.9.0,3,1,1,0,0,0,0,0,37,2,3,0,false
0.9.0,5,2,1,0,0,1,1,2,37,2,3,0,false
0.9.0,42,49,4,0,0,24,3,3,45,2,10,11,false
0.9.0,3,1,0,0,0,1,0,1,37,1,2,0,false
0.9.6,3,1,0,0,0,1,1,0,185,4,7,0,false
0.9.0,8,4,2,0,0,2,1,1,27,1,2,0,false
0.9.0,3,1,0,0,0,1,0,1,45,3,13,0,false
0.9.6,1,1,0,0,0,0,0,0,185,2,4,0,false
0.9.6,3,1,0,0,0,1,0,0,185,4,19,0,true
0.9.6,19,13,2,0,0,7,0,0,168,2,6,2,false
0.9.0,19,13,2,0,0,7,0,4,37,2,5,2,false
0.9.0,2,1,0,0,0,0,0,0,37,2,3,0,false
0.9.6,1,1,0,0,0,0,1,0,185,2,2,0,true
0.9.0,12,6,2,0,1,1,0,6,45,3,13,5,false
0.9.6,46,16,14,4,1,3,6,0,94,4,7,18,false
0.9.6,3,1,0,0,0,0,0,0,185,2,6,0,true
0.9.0,4,2,0,0,0,2,0,0,37,2,6,0,false
0.9.0,28,13,13,2,0,2,1,0,45,2,10,0,false
0.9.0,3,1,0,0,0,1,0,4,37,3,9,1,false
0.9.0,21,5,3,0,3,0,1,2,37,1,2,3,false
0.9.6,3,1,0,0,0,1,4,0,168,2,2,0,false
0.9.0,24,26,10,0,0,2,2,4,37,3,9,0,false
0.9.6,1,1,0,0,0,0,2,0,185,1,2,0,false
0.9.6,4,2,0,0,0,1,3,0,70,2,10,0,false
0.9.6,5,5,0,1,0,3,2,1,168,1,2,0,false
0.9.6,3,1,0,0,0,0,0,0,185,2,5,0,false
0.9.6,4,3,0,0,0,2,0,1,185,4,16,0,false
0.9.0,5,3,3,2,0,1,0,0,45,3,6,0,false
0.9.0,3,1,0,0,0,1,0,0,0,1,4,0,false
0.9.0,3,1,0,0,0,1,0,1,37,3,6,0,false
0.9.0,3,1,0,0,0,1,0,0,45,2,6,0,false
0.9.0,10,3,1,0,1,1,1,3,45,2,5,3,false
0.9.0,3,1,0,0,0,0,0,2,0,1,5,0,false
0.9.6,4,2,0,0,0,1,0,0,94,1,1,0,false
0.9.6,3,1,0,0,0,1,1,0,185,2,5,0,false
0.9.0,4,2,0,1,0,1,0,2,0,1,8,0,false
0.9.6,5,4,1,0,0,2,0,0,149,2,2,0,false
0.9.6,7,8,0,0,0,5,4,0,185,4,19,2,true
0.9.6,6,2,0,0,0,0,0,0,185,1,1,0,false
0.9.6,21,11,1,0,0,2,1,1,185,2,8,3,false
0.9.6,3,1,1,0,0,0,0,0,168,1,1,0,false
0.9.6,6,2,1,0,0,2,1,3,168,2,5,1,true
0.9.6,4,1,2,0,0,0,1,0,185,2,5,0,false
0.9.6,4,2,1,0,0,1,4,1,185,1,2,1,false
0.9.0,3,1,0,0,0,1,2,1,45,3,5,0,false
0.9.0,1,1,0,0,0,0,1,0,45,1,4,0,false
0.9.6,1,1,0,0,0,0,9,0,185,1,2,0,false
0.9.0,1,1,0,0,0,0,1,0,45,2,7,0,false
0.9.6,14,4,2,0,1,2,0,0,168,2,5,0,true
0.9.6,9,4,7,0,0,2,1,4,168,1,1,0,false
0.9.6,3,1,0,0,0,1,0,1,185,3,10,0,false
0.9.6,4,2,0,0,0,0,0,0,168,2,2,2,false
0.9.0,3,1,0,0,0,1,12,0,45,3,8,0,false
0.9.6,3,1,0,0,0,1,0,0,70,2,5,0,false
0.9.6,3,1,0,0,0,1,0,0,168,1,2,0,false
0.9.6,3,1,0,0,0,1,0,0,185,1,2,0,false
0.9.6,3,1,0,0,0,1,0,1,168,2,2,0,false
0.9.0,3,1,0,0,0,1,0,1,45,3,5,0,false
0.9.0,12,8,5,0,0,3,2,2,0,1,7,3,false
0.9.6,3,1,0,0,0,1,0,1,168,2,2,0,false
0.9.6,23,9,1,0,0,7,0,0,20,1,1,0,false
0.9.0,5,1,2,0,0,0,0,0,45,3,11,0,false
0.9.6,3,1,0,0,0,0,0,1,185,2,4,0,false
0.9.6,3,1,0,0,0,1,97,1,94,3,4,0,false
0.9.6,3,2,0,0,0,1,0,1,168,2,5,0,false
0.9.0,10,4,0,3,1,4,1,0,0,1,4,0,false
0.9.0,3,1,0,0,0,1,1,0,37,3,9,0,false
0.9.0,4,1,1,0,0,0,1,6,37,1,2,0,false
0.9.6,7,4,3,0,0,0,2,0,185,2,3,0,true
0.9.0,4,1,0,0,0,0,0,2,45,3,13,0,false
0.9.6,3,1,1,0,0,0,0,0,185,2,5,0,false
0.9.0,23,6,6,1,1,1,2,2,45,2,8,0,false
0.9.0,3,1,0,0,0,1,0,0,45,2,4,0,false
0.9.0,9,2,0,0,1,0,1,3,45,3,13,1,false
0.9.0,22,13,6,0,0,2,0,2,45,4,9,2,false
0.9.6,4,3,0,0,0,2,1,1,168,2,5,0,true
0.9.6,3,1,1,0,0,0,2,0,168,1,1,0,false
0.9.0,3,1,0,0,0,1,1,1,0,1,6,0,false
0.9.0,4,2,0,0,0,1,1,5,45,3,13,0,false
0.9.6,8,5,2,0,0,1,0,6,168,2,5,2,false
0.9.6,3,1,0,0,0,1,0,0,185,4,14,0,true
0.9.0,3,1,0,0,0,1,0,0,45,2,5,0,false
0.9.6,3,1,0,0,0,1,0,0,168,1,1,0,false
0.9.0,3,1,0,0,0,1,1,1,0,1,7,1,false
0.9.6,4,1,0,0,0,1,1,1,168,2,5,0,true
0.9.6,1,1,0,0,0,0,0,0,185,2,5,0,false
0.9.0,3,1,0,0,0,1,0,1,37,3,6,0,false
0.9.6,3,1,0,0,0,1,0,2,168,2,2,0,false
0.9.6,5,1,0,0,0,1,0,0,185,2,4,0,false
0.9.0,3,1,0,0,0,1,0,1,45,2,7,0,false
0.9.0,3,1,0,0,0,1,0,0,45,3,7,0,false
0.9.0,4,2,0,0,0,1,0,2,0,1,8,0,false
0.9.6,3,1,0,0,0,0,0,0,83,2,2,0,false
0.9.6,24,16,1,0,0,9,1,6,168,2,7,21,false
0.9.6,3,1,1,0,0,0,0,0,168,2,2,0,false
0.9.6,3,1,1,0,0,0,0,0,94,2,2,0,false
0.9.6,13,7,6,1,0,1,0,5,168,2,7,1,false
0.9.6,7,2,2,0,0,1,0,1,168,2,6,0,false
0.9.6,6,4,1,0,0,3,0,4,185,3,9,2,false
0.9.0,3,1,0,0,0,1,0,0,45,2,6,0,false
0.9.0,3,1,0,0,0,1,0,0,45,3,7,0,false
0.9.0,9,3,0,0,1,1,0,2,45,2,5,1,false
0.9.6,4,1,1,0,0,0,0,1,185,2,5,0,false
0.9.6,1,1,0,0,0,0,2,0,168,1,1,0,false
0.9.0,3,4,2,0,0,0,3,0,37,3,9,1,false
0.9.0,3,1,0,0,0,1,0,1,45,2,7,0,false
0.9.6,3,1,1,0,0,0,0,0,94,2,2,0,false
0.9.6,10,2,2,1,1,1,1,1,185,3,4,1,false
0.9.0,3,1,1,0,0,0,4,0,45,2,6,0,false
0.9.0,5,1,2,0,0,1,4,3,45,3,7,4,false
0.9.6,3,1,0,0,0,0,0,0,168,3,5,0,false
0.9.0,3,1,0,0,0,1,0,0,45,3,11,0,false
0.9.6,20,9,7,0,0,2,1,0,168,1,1,1,false
0.9.0,3,1,0,0,0,0,0,1,37,2,3,0,false
0.9.0,4,1,0,0,0,0,0,1,0,1,8,0,false
0.9.0,3,1,1,0,0,0,6,0,45,3,8,0,false
0.9.0,6,3,2,0,0,1,1,2,0,1,8,0,false
0.9.0,12,3,1,0,0,1,3,1,37,2,3,0,false
0.9.0,3,1,0,0,0,1,0,0,37,2,5,0,false
0.9.6,2,1,0,0,0,0,0,0,185,3,5,0,false
0.9.6,3,1,1,0,0,0,0,0,168,1,1,0,false
0.9.0,1,1,0,0,0,0,1,0,45,1,4,0,false
0.9.6,5,3,0,0,0,3,16,0,185,4,19,0,true
0.9.0,19,4,3,0,1,0,0,3,45,2,7,0,false
0.9.0,5,3,1,0,0,2,64,1,45,3,8,0,false
0.9.6,3,1,0,0,0,1,0,0,168,3,5,0,false
0.9.6,3,1,0,0,0,1,0,0,168,1,1,0,false
0.9.6,3,1,0,0,0,1,0,1,185,3,10,0,false
0.9.6,4,2,2,0,0,0,3,0,168,2,7,0,false
0.9.0,3,2,0,0,0,0,0,3,37,2,2,3,false
0.9.0,1,1,0,0,0,0,0,0,45,2,5,0,false
0.9.0,1,1,0,0,0,0,2,0,45,2,5,0,false
0.9.0,4,1,0,0,0,0,0,2,45,3,13,0,false
0.9.6,3,1,0,0,0,1,0,0,83,2,2,0,false
0.9.6,3,4,2,0,0,0,1,0,168,2,5,1,true
0.9.0,3,1,0,0,0,1,0,0,0,1,4,0,false
0.9.6,3,2,0,0,0,0,2,0,185,4,14,0,true
0.9.0,3,1,0,0,0,1,0,0,45,3,8,0,false
0.9.6,3,1,0,0,0,1,0,0,185,2,4,0,false
0.9.0,40,3,10,0,0,0,1,2,45,4,8,12,false
0.9.6,3,1,0,0,0,1,0,3,185,2,3,0,true
0.9.0,8,2,0,0,1,2,1,1,37,2,2,0,false
0.9.6,3,1,0,0,0,1,0,1,185,2,3,0,true
0.9.6,3,1,1,0,0,0,0,0,168,1,2,0,false
0.9.0,1,1,0,0,0,0,3,0,45,3,8,0,false
0.9.6,4,1,0,0,0,0,0,2,185,3,10,0,false
0.9.6,3,1,1,0,0,0,3,0,168,1,1,0,false
0.9.6,3,1,0,0,0,1,0,0,185,2,2,0,true
0.9.6,1,1,0,0,0,0,0,0,185,2,2,0,false
0.9.6,3,1,0,0,0,1,0,5,185,2,3,1,true
0.9.0,3,1,0,0,0,0,0,0,0,1,5,0,false
0.9.0,12,2,3,0,1,1,1,0,45,1,4,2,false
0.9.6,16,6,2,0,0,1,1,5,185,1,3,1,true
0.9.0,3,1,0,0,0,1,1,0,45,2,6,0,false
0.9.6,3,1,1,0,0,0,0,0,168,1,1,0,false
0.9.6,1,1,0,0,0,0,1,0,94,1,1,0,false
0.9.0,31,6,6,0,0,1,0,13,37,2,3,11,false
0.9.0,1,1,0,0,0,0,1,0,45,2,7,0,false
0.9.0,2,1,0,0,0,0,1,0,45,2,6,0,false
0.9.6,3,1,0,0,0,1,0,1,185,2,4,0,false
0.9.6,3,1,1,0,0,0,0,0,168,2,2,0,false
0.9.6,3,1,0,0,0,0,0,1,168,2,3,0,false
0.9.0,3,1,0,0,0,1,0,0,37,2,4,0,false
0.9.0,4,1,0,0,0,1,0,1,45,2,5,0,false
0.9.6,23,8,4,5,2,2,2,0,185,3,5,2,false
0.9.6,3,2,0,0,0,1,13,0,185,1,1,0,false
0.9.0,30,14,7,0,1,2,1,13,45,2,6,6,false
0.9.0,4,1,1,0,0,1,0,0,37,2,6,0,false
0.9.0,3,1,0,2,0,1,1,0,45,2,8,0,false
0.9.0,16,6,5,0,0,2,1,1,45,2,7,0,false
0.9.0,5,5,1,0,0,2,2,2,45,2,4,0,false
0.9.6,3,1,1,0,0,0,0,0,185,4,13,0,true
0.9.0,3,3,0,0,0,1,3,0,45,1,3,0,false
0.9.0,3,1,0,0,0,1,0,0,37,2,3,0,false
0.9.0,3,1,0,0,0,0,0,0,45,2,4,0,false
0.9.6,3,2,0,0,0,1,2,0,168,2,2,0,false
0.9.0,8,4,2,0,0,1,1,1,45,2,6,1,false
0.9.0,10,5,1,0,0,2,1,2,45,2,8,0,false
0.9.6,3,1,0,0,0,1,2,1,168,2,2,0,false
0.9.6,39,11,24,0,0,0,1,2,168,2,4,3,false
0.9.6,9,3,3,0,0,2,5,0,185,3,5,3,true
0.9.6,1,1,0,0,0,0,1,0,168,1,1,0,false
0.9.6,3,1,0,0,0,0,4,0,185,2,4,0,false
0.9.0,4,1,0,0,0,0,1,1,37,2,4,0,false
0.9.0,7,3,4,0,0,1,0,0,45,3,13,0,false
0.9.0,3,1,0,0,0,1,0,0,0,1,4,0,false
0.9.6,6,1,0,0,0,0,0,0,185,1,1,0,false
0.9.0,7,1,1,0,0,1,0,7,45,3,8,0,false
0.9.6,6,3,2,0,0,0,0,1,168,1,1,0,false
0.9.0,3,1,0,0,0,1,0,2,37,3,9,0,false
0.9.0,1,1,0,0,0,0,1,0,45,3,6,0,false
0.9.0,3,1,0,0,0,1,3,0,45,1,4,0,false
0.9.0,3,2,0,0,0,1,0,2,37,2,2,0,false
0.9.6,4,3,1,0,0,2,4,0,168,3,3,0,false
0.9.0,3,1,1,0,0,0,2,0,45,3,8,0,false
0.9.0,3,1,0,0,0,1,0,0,0,1,4,0,false
0.9.0,3,1,0,0,0,0,0,0,0,1,6,0,false
0.9.6,4,1,0,0,0,0,0,2,185,3,10,0,false
0.9.0,3,1,0,0,0,1,1,0,45,1,4,0,false
0.9.6,34,15,12,1,0,4,0,4,168,2,6,2,false
0.9.6,3,1,0,0,0,1,1,1,185,1,1,0,false
0.9.6,3,1,0,0,0,1,5,1,168,2,7,0,false
0.9.0,3,1,0,0,0,1,0,0,45,2,5,0,false
0.9.0,3,1,0,0,0,1,0,0,45,2,4,0,false
0.9.0,6,4,1,0,0,3,1,0,37,2,3,0,false
0.9.6,19,9,3,0,1,2,1,4,185,2,5,3,false
0.9.0,3,2,0,0,0,0,0,1,0,2,9,0,false
0.9.0,3,1,0,0,0,1,0,2,37,2,4,0,false
0.9.6,1,1,0,0,0,0,0,0,168,1,1,0,false
0.9.0,3,1,0,0,0,0,0,0,37,2,2,0,false
0.9.6,1,1,0,0,0,0,1,0,168,1,1,0,true
0.9.6,3,1,0,0,0,1,0,0,185,1,1,0,false
0.9.6,4,3,1,0,0,2,1,0,94,1,1,0,false
0.9.0,12,5,6,0,0,0,0,3,37,2,2,1,false
0.9.6,3,1,0,0,0,0,0,0,185,2,5,0,false
0.9.0,50,17,7,0,0,1,0,40,37,2,5,16,false
0.9.6,3,1,0,0,0,1,0,0,168,3,5,0,false
0.9.6,3,1,1,0,0,0,3,0,168,1,1,0,false
0.9.0,3,1,0,1,0,1,1,0,0,1,6,0,false
0.9.0,5,1,1,0,0,1,0,2,0,1,4,0,false
0.9.6,3,1,0,0,0,1,1,1,185,3,10,0,false
0.9.6,23,18,0,0,0,2,1,1,185,2,4,1,false
0.9.6,3,1,0,0,0,1,0,0,185,2,3,0,true
0.9.0,3,1,0,0,0,1,0,0,0,1,4,0,false
0.9.0,3,1,0,0,0,0,0,0,45,2,5,0,false
0.9.6,4,2,1,0,0,0,0,0,168,3,6,0,false
0.9.0,3,1,0,0,0,1,0,0,45,3,11,0,false
0.9.0,6,2,4,0,0,0,1,2,37,1,2,1,false
0.9.6,3,1,0,0,0,1,0,0,185,1,1,0,false
0.9.6,3,1,0,0,0,1,0,0,62,1,2,0,false
0.9.0,3,1,0,0,0,1,1,1,37,2,4,0,false
0.9.6,23,14,5,0,1,6,0,7,185,2,5,4,false
0.9.0,3,1,0,0,0,1,0,0,45,3,11,0,false
0.9.0,3,1,0,0,0,0,0,0,45,2,5,0,false
0.9.6,3,1,0,0,0,1,0,0,168,2,5,0,false
0.9.0,32,13,4,0,0,3,1,9,45,2,6,24,false
0.9.6,3,1,0,0,0,1,0,0,168,2,2,0,false
0.9.0,3,2,0,0,0,1,8,1,0,1,7,0,false
0.9.0,3,1,0,0,0,1,0,0,37,2,6,0,false
0.9.0,4,2,0,0,0,1,1,0,45,2,7,0,false
0.9.6,3,1,0,0,0,0,0,0,168,3,5,0,false
0.9.6,5,3,1,0,0,2,1,2,168,2,7,0,false
0.9.6,6,1,4,0,0,0,0,0,185,2,2,0,false
0.9.0,3,1,0,0,0,0,0,0,45,3,7,0,false
0.9.0,2,1,0,0,0,0,0,0,37,2,2,0,false
0.9.0,4,4,0,1,0,2,1,0,0,1,8,0,false
0.9.0,1,1,0,0,0,0,1,0,45,1,4,0,false
0.9.6,5,2,2,0,0,0,2,2,94,1,1,0,false
0.9.6,3,1,0,0,0,1,0,0,168,3,5,0,false
0.9.0,42,22,16,0,0,2,2,13,37,1,2,2,false
0.9.0,3,1,0,0,0,0,1,1,45,3,5,0,false
0.9.0,3,1,0,1,0,1,0,0,37,1,2,0,false
0.9.0,5,1,1,0,0,1,0,2,0,1,5,0,false
0.9.0,4,2,0,0,0,2,3,0,45,3,8,0,false
0.9.6,18,10,4,1,0,10,0,2,185,3,5,2,false
0.9.6,3,1,0,0,0,0,1,2,168,2,7,0,false
0.9.6,28,13,13,2,0,2,1,0,185,1,1,0,false
0.9.6,33,9,9,0,1,3,1,0,185,2,5,4,false
0.9.0,6,7,0,0,0,4,6,3,45,3,10,2,false
0.9.0,3,1,0,0,0,1,12,1,0,2,13,0,false
0.9.0,17,3,6,0,0,1,0,1,0,1,5,0,false
0.9.0,3,1,0,0,0,0,0,0,0,1,7,0,false
0.9.6,3,1,0,0,0,1,0,1,168,3,4,0,false
0.9.0,3,1,0,0,0,1,0,0,37,2,3,0,false
0.9.6,3,1,0,0,0,1,1,1,185,1,1,0,false
0.9.6,16,3,9,0,0,2,1,1,185,3,4,0,false
0.9.6,3,1,0,0,0,1,0,0,185,1,1,0,false
0.9.0,3,1,0,0,0,1,1,0,45,2,8,0,false
0.9.0,3,1,0,0,0,1,0,1,37,3,6,0,false
0.9.6,4,2,1,0,0,1,1,1,94,1,1,0,false
0.9.0,3,1,1,0,0,0,0,1,45,1,4,0,false
0.9.0,5,1,3,0,0,0,1,0,37,1,2,0,false
0.9.0,3,1,0,0,0,1,8,0,45,2,7,0,false
0.9.0,13,3,1,0,1,1,0,3,45,3,7,0,false
0.9.0,3,1,0,0,0,0,0,4,45,2,7,0,false
0.9.0,10,4,2,0,0,1,68,5,45,3,8,0,false
0.9.0,9,2,5,0,0,0,1,2,0,2,9,0,false
0.9.6,3,1,0,0,0,1,0,0,185,2,2,0,true
0.9.0,3,2,0,0,0,1,1,0,45,1,4,0,false
0.9.6,4,3,0,0,0,1,27,1,185,3,9,0,false
0.9.6,3,1,0,0,0,1,1,0,168,3,5,0,false
0.9.6,3,1,0,0,0,1,0,0,94,2,2,0,false
0.9.0,1,1,0,0,0,0,0,0,45,3,8,0,false
0.9.0,3,1,0,0,0,1,0,0,37,2,2,0,false
0.9.6,16,5,1,0,1,1,1,6,185,4,14,0,true
0.9.6,3,1,0,0,0,0,0,0,185,4,19,0,true
0.9.0,4,3,1,0,0,0,3,1,45,3,13,0,false
0.9.6,3,1,0,0,0,1,0,0,168,2,3,0,false
0.9.6,3,1,0,0,0,1,0,0,168,2,2,0,false
0.9.0,11,2,2,0,1,1,0,2,45,2,5,0,false
0.9.6,3,1,0,0,0,1,2,0,185,2,5,0,false
0.9.6,2,1,0,0,0,0,0,0,168,2,2,0,false
0.9.6,1,1,0,0,0,0,1,0,168,1,1,0,true
0.9.6,3,1,0,0,0,0,0,0,185,2,4,0,false
0.9.0,1,1,0,0,0,0,24,0,45,2,5,0,false
0.9.0,3,2,0,0,0,1,0,0,45,1,7,0,false
0.9.0,3,2,0,0,0,1,1,1,0,1,5,1,false
0.9.0,3,2,0,0,0,1,8,1,0,1,5,0,false
0.9.6,21,11,10,0,0,3,1,4,168,2,7,0,false
0.9.6,3,1,0,0,0,0,0,1,185,2,2,0,true
0.9.0,28,10,3,0,0,0,5,6,45,2,7,9,false
0.9.6,7,3,2,0,0,0,1,2,185,2,2,0,true
0.9.6,3,2,0,0,0,0,4,0,185,1,1,0,false
0.9.6,3,1,0,0,0,0,0,3,185,2,3,0,true
0.9.0,18,14,7,0,0,2,0,3,45,3,6,1,false
0.9.0,1,1,0,0,0,0,1,0,45,1,4,0,false
0.9.6,3,1,1,0,0,0,0,0,185,4,13,0,true
0.9.0,3,1,1,0,0,0,0,0,0,1,4,0,false
0.9.0,21,7,1,0,0,0,1,1,45,3,11,0,false
0.9.6,3,1,0,0,0,1,0,0,185,2,4,0,false
0.9.0,6,3,1,0,0,0,0,1,37,1,2,3,false
0.9.0,1,1,0,0,0,0,2,0,45,2,5,0,false
0.9.6,3,1,0,0,0,1,0,0,185,1,1,0,false
0.9.0,1,1,0,0,0,0,3,0,45,1,4,0,false
0.9.6,50,7,13,3,0,1,1,4,185,1,1,20,false
0.9.6,4,1,0,0,0,0,0,2,185,3,10,0,false
0.9.0,3,1,0,0,0,0,1,1,45,3,13,0,false
0.9.0,3,1,0,0,0,0,0,1,45,2,7,0,false
0.9.0,3,1,0,0,0,0,0,0,0,1,4,0,false
0.9.6,4,1,0,0,0,0,0,2,185,3,10,0,false
0.9.6,3,1,0,0,0,1,0,1,185,2,4,0,false
0.9.0,4,3,1,0,0,2,0,1,0,2,6,0,false
0.9.6,1,1,0,0,0,0,0,0,168,1,2,0,false
0.9.6,3,1,1,0,0,0,0,0,185,4,19,0,true
0.9.6,4,1,0,0,0,0,0,1,94,1,1,0,false
0.9.0,9,6,3,0,0,2,1,3,45,3,8,0,false
0.9.6,10,5,1,1,1,3,1,1,0,2,2,1,false
0.9.6,3,1,0,0,0,1,0,0,168,2,7,0,false
0.9.6,4,4,0,0,0,2,1,0,168,2,7,0,false
0.9.0,20,8,14,11,0,3,2,1,0,1,6,0,false
0.9.6,3,1,0,0,0,1,0,0,185,2,3,0,true
0.9.6,3,1,0,0,0,1,0,0,185,1,1,0,false
0.9.0,3,1,1,0,0,0,1,0,45,2,6,0,false
0.9.6,13,6,3,0,0,3,3,8,185,1,2,3,true
0.9.0,3,1,1,0,0,0,2,0,45,1,4,0,false
0.9.6,3,1,0,0,0,0,0,0,185,2,4,0,false
0.9.6,3,1,0,0,0,1,6,0,185,2,5,0,false
0.9.0,6,2,2,0,0,1,0,4,0,1,7,0,false
0.9.6,3,1,0,0,0,1,0,0,168,2,6,0,false
0.9.0,4,2,2,0,0,0,0,0,37,2,6,0,false
0.9.6,20,7,12,0,0,1,1,1,185,1,1,2,false
0.9.0,9,3,3,0,0,1,0,0,0,1,5,0,false
0.9.0,3,4,0,1,0,1,3,0,37,3,3,0,false
0.9.6,12,6,3,0,0,1,0,0,185,2,5,0,false
0.9.6,3,1,0,0,0,1,0,2,185,2,3,0,true
0.9.0,3,1,1,0,0,0,2,0,37,1,2,0,false
0.9.0,4,1,1,0,0,1,18,0,45,1,4,0,false
0.9.6,3,1,1,0,0,0,0,0,185,1,1,0,false
0.9.6,4,2,1,0,0,1,0,1,185,1,2,0,false
0.9.0,4,2,2,0,0,0,1,0,37,2,6,0,false
0.9.6,3,1,0,0,0,1,0,1,185,4,19,0,true
0.9.0,9,2,6,0,0,0,0,1,37,1,2,0,false
0.9.6,18,7,8,0,1,2,2,2,168,2,5,4,false
0.9.6,3,1,0,0,0,1,0,1,185,2,3,0,true
0.9.6,31,9,6,0,0,0,1,6,185,1,1,2,false
0.9.6,4,1,1,0,0,0,0,1,185,2,5,0,false
0.9.6,3,1,0,0,0,1,10,0,185,2,2,0,false
0.9.0,4,1,0,0,0,0,0,2,37,2,2,3,false
0.9.6,2,1,0,0,0,0,2,0,168,2,7,0,false
0.9.6,6,4,0,0,0,4,1,1,168,1,2,1,false
0.9.0,3,2,0,0,0,0,0,1,45,3,13,0,false
0.9.6,3,1,0,0,0,1,0,0,168,1,1,0,false
0.9.0,3,1,0,0,0,1,1,0,0,1,5,0,false
0.9.0,15,5,5,0,0,2,0,5,45,2,6,3,false
0.9.0,3,1,0,0,0,1,29,0,45,3,13,0,false
0.9.6,3,1,0,0,0,1,0,0,185,2,3,0,true
0.9.0,13,4,4,1,1,0,0,1,0,1,6,1,false
0.9.6,4,4,1,0,0,0,0,3,168,2,2,3,false
0.9.0,3,1,0,0,0,1,0,0,37,2,3,0,false
0.9.6,3,1,0,0,0,0,0,0,185,2,5,0,false
0.9.6,1,1,0,0,0,0,2,0,185,2,2,0,true
0.9.6,11,11,4,1,0,5,1,0,185,3,5,8,false
0.9.6,3,2,0,0,0,1,0,0,185,1,1,0,true
0.9.0,3,1,0,0,0,1,0,1,0,1,5,0,false
0.9.6,3,2,0,0,0,1,6,0,168,2,7,0,false
0.9.6,3,1,0,0,0,0,0,0,185,2,4,0,false
0.9.0,1,1,0,0,0,0,8,0,45,3,8,0,false
0.9.6,39,9,11,0,0,1,2,17,185,1,1,5,false
0.9.6,17,9,8,0,0,2,2,8,185,3,6,0,true
0.9.6,15,4,5,1,0,1,0,0,33,3,5,4,false
0.9.6,1,1,0,0,0,0,1,0,185,1,1,0,false
0.9.6,3,1,0,0,0,0,0,0,168,3,5,0,false
0.9.0,20,8,6,1,0,1,2,2,37,2,5,0,false
0.9.0,4,1,0,0,0,0,1,2,45,3,13,0,false
0.9.6,3,1,0,0,0,1,0,0,185,1,1,0,false
0.9.6,3,1,1,0,0,0,0,0,0,1,1,0,false
0.9.0,3,1,0,0,0,1,0,0,37,2,5,0,false
0.9.0,9,4,7,0,0,2,1,4,37,1,2,0,false
0.9.6,4,2,0,0,0,1,0,2,168,3,4,0,false
0.9.6,3,2,0,0,0,1,0,0,168,2,2,0,false
0.9.6,3,1,0,0,0,1,0,0,185,2,5,0,false
0.9.0,3,1,0,0,0,1,0,0,37,2,5,0,false
0.9.0,3,1,1,0,0,0,2,3,45,2,6,0,false
0.9.0,3,1,1,0,0,0,0,0,37,2,4,0,false
0.9.6,25,8,6,1,3,2,0,3,168,3,6,2,false
0.9.6,4,2,1,0,0,0,0,0,168,2,3,0,false
0.9.0,3,1,0,0,0,0,0,0,45,1,3,0,false
0.9.6,2,1,0,0,0,0,1,0,185,4,16,0,false
0.9.6,3,1,0,0,0,1,0,0,168,2,2,0,false
0.9.6,4,1,0,0,0,1,2,2,33,3,5,0,false
0.9.0,3,1,1,0,0,0,0,0,45,2,5,0,false
0.9.0,2,1,0,0,0,0,0,0,37,2,3,0,false
0.9.6,10,5,3,1,0,3,2,2,94,4,7,0,false
0.9.6,87,20,31,1,1,0,1,19,185,2,5,9,false
0.9.6,3,1,0,0,0,1,0,0,185,2,6,0,true
0.9.0,3,1,0,0,0,1,0,2,37,3,9,0,false
0.9.0,5,1,0,0,0,0,0,3,45,2,4,0,false
0.9.0,5,3,0,0,0,3,3,2,0,1,6,0,false
0.9.6,3,1,0,0,0,1,0,0,168,3,5,0,false
0.9.6,13,4,4,0,0,1,2,1,185,1,1,2,false
0.9.6,3,1,0,0,0,1,0,0,94,2,2,0,false
0.9.6,3,1,0,0,0,1,0,0,168,3,3,0,false
0.9.0,3,1,0,0,0,1,1,1,37,1,2,0,false
0.9.0,3,1,0,0,0,1,6,3,37,1,2,0,false
0.9.0,3,1,0,0,0,1,0,2,45,1,5,0,false
0.9.0,4,3,1,0,0,1,5,2,45,3,8,0,false
0.9.0,21,9,0,0,0,9,4,0,45,1,4,0,false
0.9.6,3,1,0,0,0,1,0,0,185,1,1,0,false
0.9.0,6,6,0,0,0,4,0,1,45,3,6,1,false
0.9.0,4,2,0,0,0,1,2,1,45,3,11,0,false
0.9.0,4,1,0,0,0,0,0,2,37,3,6,0,false
0.9.6,1,1,0,0,0,0,0,0,185,2,5,0,false
0.9.0,212,81,61,2,0,56,12,55,45,2,8,14,false
0.9.6,3,1,0,1,0,1,0,0,185,2,3,1,false
0.9.0,3,1,0,0,0,1,0,0,0,1,4,0,false
0.9.0,3,1,0,0,0,1,0,0,45,3,6,0,false
0.9.6,4,1,0,0,0,0,0,0,185,1,1,0,false
0.9.0,3,1,0,0,0,0,0,0,0,1,6,0,false
0.9.0,3,1,0,0,0,0,0,1,0,1,4,0,false
0.9.6,4,3,0,0,0,2,0,2,185,2,3,0,true
0.9.6,3,1,0,0,0,0,0,0,185,1,1,0,false
0.9.0,3,1,0,0,0,1,0,0,37,2,2,0,false
0.9.0,23,7,5,0,1,2,0,0,45,2,8,1,false
0.9.0,4,2,2,0,0,0,0,0,37,2,6,0,false
0.9.6,4,1,0,0,0,0,0,0,185,1,1,1,false
0.9.0,3,1,0,0,0,1,0,1,37,2,3,0,false
0.9.0,1,1,0,0,0,0,0,0,45,3,6,0,false
0.9.0,3,1,0,0,0,1,0,0,45,1,7,0,false
0.9.0,3,1,0,0,0,1,2,0,45,2,6,0,false
0.9.0,23,8,0,0,2,2,0,7,45,3,11,2,false
0.9.6,3,1,0,0,0,1,1,1,185,2,4,0,false
0.9.6,4,2,0,1,0,1,0,0,94,1,1,0,false
0.9.6,3,1,0,0,0,1,4,0,185,3,9,0,false
0.9.6,3,1,0,0,0,1,0,0,185,1,2,0,false
0.9.6,3,1,1,0,0,0,2,0,185,1,1,0,false
0.9.0,2,1,0,0,0,0,1,0,45,1,4,0,false
0.9.0,5,2,0,0,0,2,0,3,45,3,11,0,false
0.9.0,3,1,0,0,0,1,0,0,45,3,11,0,false
0.9.0,3,1,0,0,0,0,0,1,37,2,4,0,false
0.9.0,3,1,0,0,0,0,0,0,45,2,5,0,false
0.9.0,8,3,2,0,0,0,0,2,0,1,5,0,false
0.9.6,3,1,1,0,0,0,0,0,185,1,2,0,false
0.9.6,3,1,0,0,0,1,0,0,94,2,2,0,false
0.9.0,3,1,1,0,0,0,0,0,0,1,8,0,false
0.9.6,3,1,0,0,0,1,0,0,185,2,5,0,false
0.9.6,4,2,0,0,0,2,1,0,185,4,19,0,true
0.9.6,8,5,4,0,0,3,3,2,168,1,1,2,false
0.9.6,3,1,0,0,0,1,0,0,185,2,4,0,false
0.9.0,4,1,0,0,0,0,0,1,45,4,9,0,false
0.9.0,3,1,0,0,0,1,0,0,37,1,2,0,false
0.9.0,4,2,0,0,0,2,0,1,45,3,8,0,false
0.9.0,3,1,0,0,0,1,3,0,45,2,4,0,false
0.9.0,3,4,0,0,0,0,1,2,45,3,11,0,false
0.9.6,47,11,13,2,1,0,1,16,185,4,19,9,true
0.9.6,3,1,0,0,0,0,0,0,168,3,5,0,false
0.9.0,10,3,1,0,1,0,2,1,45,2,9,1,false
0.9.6,3,1,0,0,0,1,0,4,185,2,3,0,true
0.9.0,3,2,0,0,0,1,3,1,0,1,5,0,false
0.9.6,3,1,0,0,0,1,0,1,185,1,2,0,false
0.9.0,3,1,0,0,0,1,0,0,45,2,7,0,false
0.9.0,3,1,1,0,0,0,1,0,45,1,4,0,false
0.9.6,7,4,1,0,0,1,2,0,94,2,2,0,false
0.9.0,3,1,0,0,0,0,0,0,45,2,4,0,false
0.9.0,13,5,0,0,1,1,0,4,45,3,11,0,false
0.9.6,3,1,0,0,0,1,3,2,185,2,3,0,true
0.9.6,3,2,0,0,0,1,0,0,185,2,4,0,false
0.9.6,3,2,0,0,0,1,71,0,185,2,2,0,true
0.9.0,6,1,1,0,0,0,0,1,0,1,6,0,false
0.9.6,3,1,0,0,0,1,0,1,168,1,2,0,false
0.9.6,4,2,0,0,0,1,1,5,185,3,10,0,false
0.9.0,3,1,0,0,0,0,0,0,45,2,5,0,false
0.9.0,3,1,0,0,0,1,0,0,37,2,4,0,false
0.9.6,3,1,0,0,0,0,0,0,168,1,1,0,false
0.9.0,3,1,0,0,0,1,1,0,37,2,4,0,false
0.9.0,3,1,0,0,0,1,0,2,45,2,4,2,false
0.9.0,3,1,0,0,0,1,0,0,45,3,7,0,false
0.9.6,3,1,0,0,0,0,0,0,168,3,5,0,false
0.9.6,3,1,0,0,0,1,0,0,168,1,2,0,false
0.9.6,15,3,4,0,0,0,4,2,185,4,16,0,false
0.9.0,4,1,1,0,0,0,0,1,45,3,11,0,false
0.9.0,7,6,1,0,0,1,1,11,45,3,8,4,false
0.9.6,19,7,3,0,0,5,2,4,185,4,19,1,true
0.9.6,3,1,0,0,0,0,0,1,168,1,1,0,false
0.9.0,4,2,1,0,0,1,3,1,37,2,4,0,false
0.9.0,4,1,0,0,0,1,0,0,45,2,6,0,false
0.9.0,3,1,0,0,0,1,1,0,37,2,4,0,false
0.9.6,3,1,0,0,0,0,0,0,185,2,4,0,false
0.9.6,15,6,4,0,1,2,1,0,185,1,1,0,false
0.9.6,5,2,1,0,0,1,6,1,168,1,3,0,false
0.9.6,3,1,0,0,0,0,0,1,185,2,4,0,false
0.9.6,3,1,0,0,0,0,0,0,168,3,5,0,false
0.9.0,4,1,0,0,0,0,0,1,0,1,8,0,false
0.9.6,6,2,3,0,0,0,4,5,185,4,14,1,true
0.9.0,3,1,0,0,0,0,0,0,0,1,6,0,false
0.9.0,3,1,0,0,0,0,0,0,45,3,7,0,false
0.9.6,9,1,0,0,1,1,0,4,185,4,19,0,true
0.9.0,3,1,0,0,0,1,0,1,45,2,5,0,false
0.9.6,3,1,0,0,0,1,0,0,185,2,3,0,true
0.9.6,3,1,0,0,0,0,0,1,168,3,5,0,false
0.9.6,7,3,2,1,0,2,4,0,185,3,9,0,false
0.9.0,9,2,0,0,1,1,0,2,45,3,11,0,false
0.9.0,8,1,2,0,0,1,0,3,37,2,3,6,false
0.9.0,3,1,0,0,0,1,1,1,0,1,4,1,false
0.9.0,3,1,0,0,0,0,0,1,0,1,4,0,false
0.9.6,3,1,0,0,0,1,0,0,168,2,2,0,false
0.9.6,3,1,0,0,0,1,1,3,185,2,3,0,true
0.9.6,3,1,0,0,0,1,0,0,185,4,13,0,true
0.9.6,3,1,0,0,0,0,0,0,185,1,1,0,false
0.9.6,62,17,18,7,0,0,1,3,185,1,1,12,false
0.9.0,4,3,0,0,0,2,0,3,37,2,2,0,false
0.9.6,3,1,0,0,0,1,0,0,168,2,7,0,false
0.9.0,3,1,0,0,0,1,38,0,45,3,10,0,false
0.9.0,3,1,0,0,0,0,0,1,37,2,3,0,false
0.9.0,3,1,0,0,0,0,0,1,45,2,4,0,false
0.9.6,3,1,0,0,0,1,4,0,94,1,1,0,false
0.9.0,3,1,0,0,0,1,0,0,45,2,5,0,false
0.9.6,3,1,0,0,0,1,0,0,185,1,1,0,false
0.9.0,4,3,1,0,0,1,1,0,45,2,7,0,false
0.9.0,14,3,2,0,0,0,2,4,37,2,5,1,false
0.9.0,16,4,1,0,0,0,1,0,37,2,3,0,false
0.9.0,3,1,0,0,0,0,0,0,0,1,6,0,false
0.9.6,4,1,0,0,0,0,1,1,185,2,2,0,false
0.9.0,3,2,0,0,0,1,0,0,45,1,7,0,false
0.9.6,3,1,0,0,0,1,0,0,185,2,4,0,false
0.9.0,3,1,0,0,0,1,7,1,45,3,10,0,false
0.9.6,9,4,1,0,0,3,1,0,185,4,16,0,false
0.9.6,8,2,0,0,1,1,0,2,185,2,2,1,true
0.9.0,12,2,6,1,0,0,0,2,37,2,3,0,false
0.9.0,1,1,0,0,0,0,1,0,0,1,4,0,false
0.9.0,4,2,2,0,0,0,0,0,45,3,10,0,false
0.9.6,16,5,1,0,1,1,1,6,185,4,14,0,true
0.9.6,3,1,0,0,0,1,0,0,185,1,1,0,false
0.9.6,3,1,0,0,0,1,0,0,168,2,7,0,false
0.9.0,5,2,2,0,0,1,1,4,45,2,8,1,false
0.9.6,3,1,1,0,0,0,1,0,185,1,1,0,false
0.9.6,6,1,2,0,0,1,1,0,185,1,1,2,false
0.9.0,3,1,0,0,0,1,0,0,45,2,5,0,false
0.9.6,3,1,0,0,0,0,0,0,185,2,5,0,false
0.9.0,3,1,1,0,0,0,0,0,37,2,2,0,false
0.9.6,16,5,1,0,1,1,1,6,185,4,14,0,true
0.9.6,15,7,1,0,0,0,0,2,168,3,5,0,false
0.9.6,3,1,0,0,0,1,0,0,185,1,1,0,false
0.9.0,3,1,1,0,0,0,0,0,45,3,7,0,false
0.9.6,3,1,0,0,0,1,0,0,185,1,2,0,false
0.9.6,2,1,0,0,0,0,0,0,168,1,2,0,false
0.9.6,3,2,0,0,0,1,0,0,185,4,16,0,false
0.9.6,3,1,1,0,0,0,2,0,185,1,1,0,false
0.9.6,3,1,0,0,0,1,4,0,185,4,19,0,true
0.9.0,3,1,0,0,0,0,0,0,0,1,5,0,false
0.9.0,3,1,0,0,0,1,1,0,37,2,3,0,false
0.9.6,2,1,0,0,0,0,0,0,168,2,3,0,false
0.9.6,3,1,0,0,0,0,0,0,185,1,1,0,false
0.9.0,1,1,0,0,0,0,0,0,45,3,8,0,false
0.9.0,1,1,0,0,0,0,2,0,45,2,4,0,false
0.9.6,3,1,0,0,0,1,0,0,94,1,2,0,false
0.9.0,1,1,0,0,0,0,1,0,45,3,8,0,false
0.9.0,11,1,3,0,1,0,0,1,45,4,9,0,false
0.9.6,3,1,0,0,0,1,0,0,185,4,13,1,true
0.9.6,3,1,0,0,0,0,0,0,185,2,4,0,false
0.9.6,3,1,0,0,0,1,1,0,168,1,2,0,false
0.9.0,1,1,0,0,0,0,12,0,45,3,8,0,false
0.9.0,3,1,0,0,0,0,0,0,37,2,2,0,false
0.9.0,4,1,0,0,0,0,0,2,45,3,13,0,false
0.9.0,7,3,2,0,0,2,3,2,0,1,8,0,false
0.9.6,3,1,0,0,0,1,1,0,185,2,4,0,false
0.9.6,44,13,4,3,0,1,1,0,185,1,1,4,false
0.9.6,4,2,0,0,0,1,0,1,185,3,10,0,false
0.9.0,6,3,3,0,0,2,1,1,45,1,5,0,false
0.9.6,1,1,0,0,0,0,1,0,185,1,2,0,false
0.9.0,3,1,0,0,0,1,0,0,45,2,5,0,false
0.9.6,8,4,3,0,0,1,0,0,168,3,4,0,false
0.9.6,5,3,1,0,0,0,0,0,168,1,1,0,false
0.9.6,8,7,0,0,0,6,2,3,185,4,13,0,true
0.9.6,4,2,2,0,0,0,1,0,185,2,4,0,false
0.9.0,42,13,18,0,0,0,1,8,37,1,2,15,false
0.9.6,3,1,0,0,0,0,0,0,185,1,1,0,false
0.9.6,3,1,0,0,0,1,0,2,185,2,2,0,false
0.9.0,3,1,1,0,0,0,0,0,37,2,3,0,false
0.9.6,3,1,0,0,0,1,0,1,168,2,2,0,false
0.9.0,1,1,0,0,0,0,2,0,45,2,5,0,false
0.9.6,1,1,0,0,0,0,0,0,185,2,2,0,false
0.9.6,3,1,0,0,0,1,0,0,168,1,1,0,false
0.9.0,20,9,7,0,0,3,0,9,37,2,3,7,false
0.9.0,14,7,6,0,0,1,5,3,37,2,3,0,false
0.9.0,8,4,2,0,0,2,1,1,45,3,11,0,false
0.9.0,3,1,0,0,0,0,1,1,45,3,5,0,false
0.9.6,3,1,0,0,0,1,7,0,185,2,2,0,false
0.9.6,15,8,6,0,0,4,4,2,168,1,2,2,false
0.9.6,4,2,0,0,0,2,0,0,94,2,2,0,false
0.9.6,13,5,3,0,0,3,1,9,185,1,2,6,true
0.9.0,3,1,0,0,0,0,0,1,37,2,4,0,false
0.9.0,3,1,0,0,0,0,0,0,45,2,5,0,false
0.9.0,3,1,0,0,0,1,2,0,45,2,5,0,false
0.9.0,20,12,3,0,0,1,20,6,45,3,10,1,false
0.9.6,3,1,0,0,0,0,3,0,185,2,4,0,false
0.9.6,3,1,0,0,0,1,0,0,168,3,5,0,false
0.9.0,3,1,0,0,0,1,0,0,45,1,4,0,false
0.9.0,3,1,0,0,0,1,0,0,37,2,5,0,false
0.9.0,4,2,0,0,0,1,2,2,45,2,8,0,false
0.9.6,10,7,8,0,0,2,10,0,185,3,9,2,false
0.9.0,5,3,1,0,0,2,0,1,45,3,5,1,false
0.9.0,3,1,1,0,0,0,0,0,45,2,5,0,false
0.9.0,3,2,0,0,0,1,1,1,0,1,7,0,false
0.9.6,3,1,0,0,0,1,1,0,185,2,5,0,false
0.9.0,3,1,0,0,0,0,0,0,0,1,6,0,false
0.9.0,4,1,0,0,0,0,0,1,0,1,8,0,false
0.9.0,4,3,0,0,0,2,2,1,37,3,9,0,false
0.9.0,3,1,0,0,0,0,0,0,0,1,6,0,false
0.9.0,3,1,1,0,0,0,0,0,37,2,3,0,false
0.9.0,3,1,0,0,0,1,23,1,45,3,10,0,false
0.9.6,3,1,0,0,0,1,0,0,185,2,3,0,true
0.9.6,3,1,0,0,0,1,0,0,185,2,3,0,true
0.9.0,3,1,0,0,0,1,0,0,37,2,4,0,false
0.9.0,3,1,0,0,0,1,0,0,0,1,6,0,false
0.9.0,11,5,5,0,0,1,1,4,37,3,3,4,false
0.9.6,3,1,0,0,0,0,0,0,185,2,5,0,false
0.9.0,8,4,3,0,0,0,0,2,37,2,2,3,false
0.9.0,4,1,0,0,0,0,0,1,0,1,8,0,false
0.9.0,3,1,0,0,0,0,0,0,45,1,4,0,false
0.9.6,3,1,0,0,0,0,0,1,168,2,3,0,false
0.9.6,18,4,5,0,1,3,2,2,168,2,5,3,false
0.9.6,12,4,3,0,1,1,0,10,185,2,3,3,true
0.9.6,3,1,0,0,0,0,0,0,185,2,4,0,false
0.9.0,14,8,0,0,0,2,1,0,45,2,10,0,false
0.9.6,3,1,0,0,0,1,0,3,185,2,3,0,true
0.9.6,1,1,0,0,0,0,1,0,168,1,1,0,true
0.9.0,3,1,0,0,0,0,0,0,45,2,5,0,false
0.9.0,3,1,0,0,0,1,1,0,37,3,3,0,false
0.9.0,3,1,0,0,0,0,1,0,45,2,6,0,false
0.9.0,1,1,0,0,0,0,0,0,45,1,4,0,false
0.9.6,4,4,0,0,0,2,0,0,168,1,1,0,true
0.9.6,9,6,3,0,0,2,11,2,168,1,1,1,false
0.9.0,3,2,0,0,0,1,0,0,45,3,13,0,false
0.9.6,3,1,0,0,0,0,0,0,185,2,5,0,false
0.9.6,3,1,0,0,0,1,0,0,168,2,3,0,false
0.9.6,11,2,1,0,1,0,0,2,185,2,4,0,false
0.9.6,6,1,1,0,0,1,1,3,185,3,6,2,true
0.9.6,3,1,0,0,0,1,0,0,0,1,1,0,false
0.9.0,11,5,0,0,0,3,0,0,45,1,3,0,false
0.9.6,6,1,0,0,0,0,1,2,185,1,2,0,false
0.9.0,1,1,0,0,0,0,0,0,45,2,5,0,false
0.9.6,32,32,6,0,1,7,1,5,185,4,16,2,false
0.9.0,8,2,2,0,0,0,2,6,45,3,13,0,false
0.9.0,8,1,2,0,0,1,1,1,45,2,6,3,false
0.9.6,6,3,1,0,0,0,0,1,168,1,1,3,false
0.9.6,3,1,0,0,0,1,0,0,185,1,1,0,false
0.9.6,3,2,0,0,0,0,0,1,94,2,2,0,false
0.9.6,5,3,2,1,0,1,0,0,185,4,16,0,false
0.9.6,3,1,0,0,0,1,9,0,185,4,14,0,true
0.9.6,4,1,0,0,0,1,0,0,94,1,2,0,false
0.9.6,4,2,1,0,0,1,1,0,94,1,1,0,false
0.9.0,1,1,0,0,0,0,0,0,45,3,8,0,false
0.9.6,3,1,0,0,0,1,0,1,185,3,10,0,false
0.9.6,4,2,1,0,0,0,2,1,185,2,5,0,false
0.9.0,4,1,0,0,0,0,0,2,45,3,13,0,false
0.9.6,3,1,0,0,0,0,0,0,185,2,4,0,false
0.9.0,14,9,2,0,0,0,0,1,45,2,6,1,false
0.9.0,3,1,0,0,0,1,0,1,45,1,4,0,false
0.9.6,3,1,0,0,0,1,0,0,185,4,19,0,true
0.9.0,3,1,0,0,0,1,0,0,0,1,4,0,false
0.9.6,3,2,0,0,0,1,0,0,168,1,1,0,false
0.9.6,3,1,0,0,0,1,5,0,185,2,2,0,false
0.9.0,4,1,2,0,0,0,0,0,37,2,6,0,false
0.9.6,4,1,0,0,0,1,0,0,185,1,3,0,false
0.9.0,30,15,15,1,0,4,3,8,37,2,6,0,false
0.9.0,9,3,0,0,1,1,0,2,45,2,5,1,false
0.9.6,3,1,0,0,0,1,0,0,185,1,3,0,false
0.9.6,5,1,2,0,0,0,0,0,168,1,1,0,false
0.9.6,3,1,0,0,0,1,0,0,168,1,2,0,false
0.9.0,3,1,0,0,0,1,0,0,37,2,6,0,false
0.9.6,4,2,0,0,0,0,0,2,185,4,19,0,true
0.9.0,3,1,0,0,0,1,0,0,45,3,11,0,false
0.9.6,3,1,0,0,0,1,5,1,185,1,3,1,true
0.9.6,3,1,0,0,0,1,0,0,185,2,4,0,false
0.9.6,9,3,0,0,1,0,1,3,185,4,19,0,true
0.9.6,5,1,2,0,0,0,0,0,185,2,2,1,true
0.9.0,3,1,0,0,0,1,0,0,45,3,13,0,false
0.9.0,3,1,1,0,0,0,0,0,37,2,3,0,false
0.9.6,3,1,0,0,0,1,0,0,168,2,7,0,false
0.9.0,3,1,0,0,0,1,0,0,45,2,4,0,false
0.9.0,10,3,6,0,0,1,1,6,45,2,8,2,false
0.9.6,3,1,0,0,0,0,1,1,185,2,4,0,false
0.9.0,3,1,0,0,0,0,0,2,0,1,6,0,false
0.9.6,3,1,0,0,0,0,0,0,185,4,19,0,true
0.9.0,3,1,0,0,0,1,0,0,0,1,4,0,false
0.9.6,7,6,3,0,0,2,4,3,185,4,14,1,true
0.9.0,3,1,0,0,0,0,0,3,45,2,7,0,false
0.9.6,3,1,0,0,0,1,2,0,185,1,2,0,false
0.9.6,3,1,0,0,0,1,2,0,185,2,2,0,true
0.9.0,3,1,0,0,0,1,0,1,45,2,7,0,false
0.9.0,1,1,0,0,0,0,1,0,45,1,4,0,false
0.9.6,5,3,0,0,0,0,0,0,168,1,1,0,false
0.9.6,3,1,0,0,0,0,0,0,185,2,4,0,false
0.9.0,3,1,0,0,0,1,0,1,45,2,7,0,false
0.9.0,24,10,5,0,1,3,1,3,45,2,6,7,false
0.9.6,33,10,3,1,0,0,1,2,185,1,1,39,false
0.9.6,3,1,0,0,0,1,0,0,185,1,1,0,false
0.9.0,3,1,0,0,0,1,0,2,45,1,5,0,false
0.9.0,3,1,0,0,0,0,0,0,0,1,4,0,false
0.9.6,3,1,0,0,0,0,0,1,168,1,1,0,false
0.9.6,3,1,0,0,0,1,5,0,185,4,14,0,true
0.9.6,3,1,0,0,0,1,0,0,185,2,5,0,false
0.9.6,3,1,0,0,0,1,1,1,168,2,3,0,false
0.9.0,1,1,0,0,0,0,2,0,45,1,4,0,false
0.9.6,15,2,2,0,1,1,0,4,94,1,1,0,false
0.9.6,14,7,1,0,0,1,1,4,168,1,1,0,false
0.9.0,3,1,1,0,0,0,0,0,37,2,3,0,false
0.9.6,1,1,0,0,0,0,0,0,185,2,5,0,false
0.9.6,3,1,0,0,0,1,1,1,185,2,3,0,true
0.9.6,7,7,0,0,0,4,0,0,168,2,3,0,false
0.9.6,3,1,1,0,0,0,2,3,185,3,6,0,true
0.9.6,3,1,0,0,0,1,0,0,168,1,1,0,false
0.9.0,5,5,1,0,0,0,2,4,45,3,11,0,false
0.9.0,2,1,0,0,0,0,0,0,37,2,4,0,false
0.9.6,3,1,0,0,0,1,0,0,185,2,5,0,false
0.9.0,13,6,5,0,0,2,4,3,45,3,8,0,false
0.9.0,4,1,0,0,0,1,0,0,45,2,5,0,false
0.9.6,3,1,0,0,0,1,0,1,185,1,1,0,false
0.9.0,1,1,0,0,0,0,0,0,45,3,6,0,false
0.9.0,16,1,3,0,0,0,1,1,45,4,8,14,false
0.9.6,3,1,0,0,0,1,0,1,185,2,2,0,true
0.9.6,3,1,0,0,0,0,1,3,185,2,2,0,true
0.9.0,4,1,2,0,0,0,0,0,37,2,2,0,false
0.9.6,4,1,2,0,0,0,1,0,185,2,5,0,false
0.9.6,3,1,1,0,0,0,2,0,168,1,1,0,false
0.9.0,3,1,0,0,0,1,0,0,37,2,6,0,false
0.9.6,3,1,0,0,0,0,0,0,94,1,1,0,false
0.9.0,43,19,11,0,0,5,35,7,45,3,8,3,false
0.9.6,3,1,0,0,0,1,0,0,185,3,5,0,true
0.9.6,3,1,1,0,0,0,0,0,168,1,2,0,false
0.9.0,16,1,3,0,0,0,1,0,45,1,3,15,false
0.9.6,3,1,1,0,0,0,1,0,168,1,1,0,false
0.9.6,2,1,0,0,0,0,1,0,185,3,6,0,true
0.9.6,3,1,0,0,0,1,0,0,168,2,3,0,false
0.9.0,3,2,0,0,0,1,0,0,0,1,5,0,false
0.9.0,11,4,2,0,1,1,0,1,45,2,5,0,false
0.9.6,3,1,0,0,0,1,0,0,185,1,1,0,false
0.9.0,25,13,11,2,0,0,1,2,37,2,3,11,false
0.9.0,9,2,0,0,1,1,0,2,45,3,7,1,false
0.9.0,14,5,1,0,1,0,1,0,45,1,5,0,false
0.9.0,3,1,0,0,0,1,0,1,45,2,6,0,false
0.9.0,3,1,0,0,0,0,0,1,45,2,7,0,false
0.9.6,4,1,2,0,0,0,1,0,33,3,5,0,false
0.9.0,3,1,0,0,0,1,1,3,45,1,5,0,false
0.9.6,3,1,0,0,0,1,0,0,94,1,1,0,false
0.9.6,3,1,0,0,0,1,0,1,168,3,4,0,false
0.9.0,5,3,0,0,0,1,2,1,45,4,9,0,false
0.9.6,3,1,0,0,0,0,1,1,168,2,7,0,false
0.9.0,3,1,0,0,0,1,0,1,45,2,5,0,false
0.9.0,7,2,1,0,0,1,1,0,37,3,6,0,false
0.9.0,3,1,0,0,0,1,0,0,0,2,9,0,false
0.9.0,3,1,0,0,0,1,1,1,45,3,10,0,false
0.9.6,3,1,1,0,0,0,0,0,168,1,1,0,false
0.9.6,3,1,0,0,0,1,0,0,185,2,4,0,false
0.9.0,3,1,0,0,0,1,0,0,37,2,2,0,false
0.9.0,5,4,1,0,0,2,0,0,27,1,2,0,false
0.9.6,3,2,0,0,0,1,7,0,185,4,7,0,false
0.9.6,23,5,0,0,2,2,0,5,185,4,19,1,true
0.9.6,3,1,1,0,0,0,3,0,185,2,2,0,false
0.9.0,3,1,0,0,0,1,1,1,45,3,5,0,false
0.9.6,4,1,0,0,0,0,0,1,94,1,1,0,false
0.9.6,3,1,0,0,0,1,0,0,94,1,1,0,false
0.9.6,3,1,0,0,0,1,1,0,78,2,2,0,false
0.9.0,3,1,0,0,0,1,5,0,45,3,8,0,false
0.9.0,12,4,4,0,0,2,1,3,37,2,3,4,false
0.9.0,1,1,0,0,0,0,3,0,45,1,4,0,false
0.9.6,3,1,0,0,0,1,0,0,185,1,1,0,false
0.9.0,3,1,0,0,0,0,0,4,45,2,7,0,false
0.9.6,3,1,0,0,0,0,0,0,185,2,4,0,false
0.9.0,3,1,1,0,0,0,0,0,37,2,2,0,false
0.9.0,28,7,3,2,0,1,1,0,0,1,8,0,false
0.9.0,3,1,0,0,0,1,1,0,45,3,10,0,false
0.9.6,4,4,0,0,0,2,1,1,185,3,9,1,false
0.9.6,3,1,0,0,0,0,8,0,185,3,6,0,true
0.9.6,3,1,0,0,0,0,0,0,185,1,1,0,false
0.9.0,3,1,0,0,0,0,0,0,45,1,5,0,false
0.9.6,3,1,0,0,0,1,0,0,185,1,1,0,false
0.9.6,7,3,2,0,0,1,0,0,168,3,6,2,false
0.9.6,3,1,0,0,0,0,0,0,185,1,1,0,false
0.9.0,12,7,4,0,0,3,1,1,37,2,6,0,false
0.9.6,4,1,0,0,0,0,0,2,185,3,10,0,false
0.9.0,15,5,4,0,0,1,1,11,45,2,6,4,false
0.9.6,27,18,1,0,0,7,2,2,185,2,2,1,true
0.9.0,3,4,0,0,0,0,0,2,0,2,9,0,false
0.9.0,3,1,1,0,0,0,0,0,37,2,3,0,false
0.9.0,3,1,0,0,0,0,0,0,45,2,5,0,false
0.9.0,3,1,0,0,0,1,0,0,37,3,6,0,false
0.9.0,3,1,0,0,0,1,0,0,37,2,2,0,false
0.9.0,16,3,2,0,1,0,1,8,45,3,13,1,false
0.9.6,1,1,0,0,0,0,0,0,185,2,5,0,false
0.9.6,5,3,2,0,0,2,4,0,168,1,2,0,false
0.9.0,4,1,0,0,0,1,5,0,45,2,7,0,false
0.9.0,3,1,1,0,0,0,24,0,0,1,5,0,false
0.9.0,2,1,0,0,0,0,0,0,45,2,5,0,false
0.9.6,18,7,8,0,1,2,2,2,168,2,5,4,false
0.9.0,3,1,0,0,0,1,0,0,0,1,4,0,false
0.9.0,5,3,2,0,0,2,0,0,45,3,13,0,false
0.9.6,33,16,7,0,1,0,3,11,185,4,19,5,true
0.9.6,3,1,0,0,0,1,0,1,168,2,2,0,false
0.9.0,1,1,0,0,0,0,1,0,45,1,4,0,false
0.9.0,3,1,0,0,0,1,0,0,37,2,3,0,false
0.9.0,3,1,1,0,0,0,0,0,45,2,7,0,false
0.9.0,3,1,0,0,0,1,0,0,0,1,4,0,false
0.9.0,4,2,2,0,0,0,1,0,37,1,2,0,false
0.9.0,3,1,0,0,0,1,0,0,45,1,7,0,false
0.9.0,3,1,0,0,0,1,1,0,37,3,9,0,false
0.9.6,3,1,0,0,0,1,0,0,185,1,3,0,false
0.9.6,3,1,0,0,0,1,0,0,185,1,1,0,false
0.9.0,14,6,3,0,0,0,2,4,45,2,6,2,false
0.9.0,3,1,0,0,0,1,0,1,45,2,7,0,false
0.9.6,4,2,0,0,0,1,0,2,168,3,4,0,false
0.9.6,4,3,1,0,0,0,1,1,94,2,2,0,false
0.9.6,1,1,0,0,0,0,0,0,185,2,4,0,false
0.9.6,3,1,0,0,0,0,0,1,168,3,5,0,false
0.9.0,28,1,0,0,0,1,1,0,45,1,5,1,false
0.9.0,3,1,0,0,0,1,0,0,0,1,4,0,false
0.9.0,3,1,0,0,0,1,0,0,37,3,6,0,false
0.9.0,3,1,0,0,0,1,3,0,37,2,4,0,false
0.9.6,3,3,0,0,0,0,2,3,185,4,14,0,true
0.9.0,3,1,0,0,0,1,0,0,37,2,4,0,false
0.9.6,4,2,0,0,0,1,0,2,185,3,10,0,false
0.9.6,1,1,0,0,0,0,0,0,185,2,4,0,false
0.9.0,10,5,2,0,0,3,2,2,0,1,5,0,false
0.9.0,3,1,0,0,0,0,1,0,45,2,6,0,false
0.9.0,3,1,0,0,0,0,0,0,0,1,6,0,false
0.9.0,1,1,0,0,0,0,1,0,37,2,3,0,false
0.9.0,3,1,1,0,0,0,0,0,37,2,2,0,false
0.9.0,3,1,0,0,0,1,1,0,45,2,6,0,false
0.9.0,3,1,0,0,0,1,3,0,0,1,8,0,false
0.9.6,3,1,0,0,0,0,1,3,185,2,3,0,true
0.9.6,8,2,0,0,1,0,0,2,185,2,2,1,true
0.9.0,3,1,0,0,0,0,0,0,45,2,6,0,false
0.9.0,19,5,4,0,1,0,6,10,45,3,13,0,false
0.9.6,3,2,1,0,0,0,0,0,185,4,13,0,true
0.9.6,3,2,0,0,0,0,0,1,94,2,2,0,false
0.9.0,3,1,0,0,0,0,0,1,37,2,6,0,false
0.9.6,16,3,5,0,0,0,0,11,168,1,1,5,false
0.9.6,9,3,4,0,0,0,0,0,185,1,1,0,false
0.9.6,3,1,1,0,0,0,0,0,168,2,3,0,false
0.9.6,7,3,1,0,0,1,2,0,185,1,1,0,false
0.9.0,3,1,0,0,0,0,0,0,45,2,5,0,false
0.9.0,3,1,0,0,0,1,2,3,0,1,5,0,false
0.9.0,5,1,1,0,0,1,2,3,45,2,6,1,false
0.9.6,3,1,0,0,0,1,0,0,185,2,4,0,false
0.9.0,8,2,2,0,0,1,0,1,0,1,4,0,false
0.9.6,5,3,0,0,0,3,2,0,185,3,6,0,true
0.9.6,3,1,0,0,0,1,1,0,78,2,2,0,false
0.9.6,22,14,6,0,0,7,2,0,168,1,1,2,false
0.9.6,3,1,0,0,0,1,2,0,168,2,2,0,false
0.9.6,3,1,0,0,0,1,2,0,168,2,2,0,false
0.9.0,3,1,0,0,0,1,6,0,45,3,11,0,false
0.9.6,16,3,5,0,0,0,0,14,168,1,1,5,false
0.9.0,4,1,1,0,0,1,0,6,45,2,7,0,false
0.9.6,1,1,0,0,0,0,0,0,185,2,5,0,false
0.9.6,3,1,0,0,0,1,0,2,185,3,10,0,false
0.9.6,3,1,0,0,0,1,0,2,185,2,2,0,false
0.9.6,3,1,0,0,0,1,0,0,185,4,7,0,false
0.9.0,3,1,1,0,0,0,2,0,45,2,6,0,false
0.9.6,3,1,0,0,0,1,0,0,62,1,2,0,false
0.9.0,3,1,0,0,0,1,0,3,45,2,7,0,false
0.9.6,7,4,1,0,0,2,0,0,168,1,1,0,false
0.9.0,11,3,4,0,0,1,3,4,37,2,6,0,false
0.9.0,3,1,0,1,0,1,7,3,0,2,9,0,false
0.9.0,4,1,2,0,0,0,0,0,37,1,2,0,false
0.9.0,3,1,0,0,0,1,1,0,45,1,4,0,false
0.9.6,3,2,1,0,0,0,0,0,185,2,4,0,false
0.9.6,11,2,1,0,1,1,1,3,185,2,2,0,true
0.9.6,5,3,0,0,0,3,1,0,168,1,1,0,false
0.9.0,3,2,1,0,0,0,1,0,45,3,8,0,false
0.9.6,3,1,0,0,0,1,0,0,185,3,5,0,false
0.9.6,3,1,0,0,0,0,0,0,185,2,5,0,false
0.9.6,1,1,0,0,0,0,1,0,185,1,1,0,false
0.9.0,3,1,0,0,0,1,0,1,37,2,4,0,false
0.9.0,3,1,0,0,0,1,0,0,45,2,4,0,false
0.9.6,3,1,0,0,0,1,23,0,185,2,5,0,false
0.9.6,3,1,0,0,0,1,0,1,185,1,3,1,true
0.9.0,4,2,1,2,0,0,2,0,37,2,6,0,false
0.9.6,3,1,0,0,0,1,0,0,168,1,1,0,false
0.9.0,3,1,0,0,0,1,0,0,0,1,4,0,false
0.9.6,3,1,0,0,0,1,0,0,185,4,13,0,true
0.9.0,4,2,0,0,0,2,2,2,45,3,10,0,false
0.9.0,3,1,0,0,0,1,0,0,37,2,2,0,false
0.9.6,14,4,0,0,1,2,0,6,185,4,19,1,true
0.9.6,3,1,0,0,0,1,0,0,168,1,1,0,false
0.9.0,3,1,0,0,0,0,0,1,37,2,4,0,false
0.9.6,3,1,0,0,0,0,0,4,185,2,3,0,true
0.9.0,37,21,0,0,0,12,2,0,37,2,2,1,false
0.9.6,25,9,5,0,1,1,4,2,168,1,3,1,false
0.9.6,3,4,0,0,0,1,1,0,168,2,5,0,true
0.9.0,3,1,0,0,0,1,0,1,45,3,13,0,false
0.9.6,4,2,1,0,0,1,0,0,185,1,1,0,false
0.9.6,3,1,0,0,0,1,0,0,185,4,19,0,true
0.9.6,2,1,0,0,0,0,1,0,185,1,1,0,true
0.9.6,2,1,0,0,0,0,0,0,168,1,2,0,false
0.9.0,3,1,0,0,0,1,37,0,45,3,8,0,false
0.9.0,3,1,0,0,0,1,0,0,45,3,7,0,false
0.9.6,7,2,2,0,0,2,0,0,185,4,16,0,false
0.9.0,3,2,0,0,0,1,0,0,37,1,2,0,false
0.9.6,24,11,11,0,0,2,3,1,168,3,5,3,false
0.9.6,3,1,0,0,0,1,1,1,168,2,7,0,false
0.9.6,3,1,0,0,0,1,0,0,185,1,3,0,false
0.9.0,3,1,0,0,0,1,1,0,45,3,11,0,false
0.9.6,12,1,1,0,0,1,1,1,185,1,1,31,false
0.9.0,3,1,0,0,0,0,0,0,37,2,3,0,false
0.9.0,3,1,0,0,0,1,0,0,0,1,4,0,false
0.9.6,16,3,6,0,1,1,0,16,185,2,3,8,true
0.9.6,3,1,0,0,0,1,0,0,70,2,5,0,false
0.9.0,3,1,1,0,0,0,0,0,0,1,4,0,false
0.9.0,5,2,3,0,0,0,0,2,0,1,5,2,false
0.9.0,3,1,0,0,0,1,0,1,45,3,13,0,false
0.9.6,4,1,0,0,0,0,0,1,94,1,1,0,false
0.9.6,3,1,0,0,0,1,9,4,185,4,14,0,true
0.9.0,46,10,18,0,2,0,0,4,37,2,3,1,false
0.9.0,3,1,0,1,0,1,1,0,45,1,4,0,false
0.9.6,4,1,0,0,0,0,0,2,185,3,10,0,false
0.9.6,4,3,1,0,0,0,0,3,185,4,13,0,true
0.9.0,10,1,1,0,0,1,1,0,45,3,6,0,false
0.9.0,1,1,0,0,0,0,0,0,45,3,8,0,false
0.9.0,5,6,1,0,0,1,0,2,0,1,4,0,false
0.9.0,5,1,0,0,0,0,2,5,37,2,3,2,false
0.9.6,3,1,0,0,0,1,0,0,185,1,2,0,false
0.9.6,3,1,0,0,0,0,0,0,168,2,4,0,false
0.9.6,1,1,0,0,0,0,5,0,185,1,2,0,false
0.9.6,2,1,0,0,0,0,0,0,168,1,1,0,false
0.9.6,3,1,0,0,0,1,2,0,185,2,3,0,true
0.9.0,1,1,0,0,0,0,0,0,45,3,8,0,false
0.9.0,4,1,0,0,0,0,0,2,45,3,13,0,false
0.9.6,3,2,0,0,0,1,0,0,185,2,2,0,false
0.9.0,3,1,0,0,0,0,0,3,45,2,7,0,false
0.9.0,3,1,0,0,0,0,0,0,45,2,5,0,false
0.9.6,4,2,1,0,0,1,1,1,185,1,2,1,false
0.9.0,5,4,1,0,0,1,0,4,45,2,5,1,false
0.9.6,40,12,13,0,1,0,2,3,185,4,16,4,false
0.9.0,1,1,0,0,0,0,0,0,45,1,4,0,false
0.9.6,3,1,0,0,0,0,0,1,168,2,7,0,false
0.9.0,1,1,0,0,0,0,0,0,45,3,8,0,false
0.9.6,12,2,4,1,1,1,0,2,168,1,1,5,false
0.9.6,4,2,2,0,0,0,1,0,185,2,4,0,false
0.9.0,3,1,0,0,0,0,0,0,0,1,4,0,false
0.9.0,4,1,1,0,0,0,2,0,45,2,8,0,false
0.9.0,8,2,0,0,1,1,0,2,45,3,7,1,false
0.9.6,3,2,0,0,0,0,0,1,168,1,1,0,false
0.9.0,4,1,1,0,0,0,0,1,45,3,11,0,false
0.9.6,3,1,0,0,0,1,2,0,185,4,16,0,false
0.9.0,3,1,0,0,0,1,0,0,0,1,4,0,false
0.9.0,3,1,1,0,0,0,0,0,45,3,10,0,false
0.9.6,3,1,0,0,0,1,0,0,185,2,2,0,true
0.9.6,3,1,0,0,0,1,0,0,185,2,2,0,true
0.9.0,3,2,0,0,0,0,1,0,0,1,6,0,false
0.9.6,3,1,0,0,0,1,0,0,168,1,2,0,false
0.9.6,1,1,0,0,0,0,0,0,185,2,5,0,false
0.9.0,3,1,0,0,0,1,1,0,45,1,4,0,false
0.9.0,8,3,3,0,0,0,1,3,37,2,2,2,false
0.9.6,4,1,0,0,0,0,0,0,168,1,1,3,false
0.9.6,4,2,0,0,0,2,0,0,185,4,13,0,true
0.9.0,11,4,2,0,1,0,3,4,45,3,8,0,false
0.9.6,11,3,1,0,1,2,0,1,168,1,1,0,false
0.9.0,3,1,0,0,0,1,0,0,0,1,4,0,false
0.9.0,4,2,0,0,0,0,2,1,45,1,4,0,false
0.9.6,4,2,0,0,0,1,0,2,168,3,4,0,false
0.9.0,5,3,1,0,0,2,0,1,0,1,5,1,false
0.9.6,3,1,0,0,0,0,1,1,168,2,3,0,false
0.9.0,4,1,1,0,0,1,1,1,37,2,3,0,false
0.9.6,3,1,0,0,0,1,0,0,168,3,5,0,false
0.9.0,4,1,0,0,0,0,1,1,37,2,4,0,false
0.9.6,9,5,2,0,0,1,12,1,185,4,14,0,true
0.9.0,11,2,1,0,1,0,0,2,45,3,7,0,false
0.9.0,3,1,0,0,0,1,0,0,0,1,4,0,false
0.9.0,3,1,0,0,0,1,0,0,0,1,4,0,false
0.9.6,3,1,0,0,0,1,0,0,168,1,1,0,false
0.9.6,3,1,1,0,0,0,0,0,185,1,1,0,false
0.9.0,8,3,2,0,0,1,1,4,45,2,6,6,false
0.9.6,3,2,0,1,0,0,1,2,94,1,1,0,false
0.9.0,3,1,1,0,0,0,0,0,45,2,6,0,false
0.9.0,7,3,1,0,0,0,1,3,45,3,8,0,false
0.9.6,12,2,0,0,0,0,0,0,168,3,5,0,false
0.9.0,3,1,0,0,0,1,0,0,0,1,8,0,false
0.9.0,20,9,3,0,1,0,2,15,45,3,13,1,false
0.9.0,3,1,0,0,0,1,0,1,37,2,3,0,false
0.9.0,3,1,0,0,0,0,0,0,45,2,5,0,false
0.9.6,6,3,3,0,0,1,4,4,168,2,7,1,false
0.9.6,11,2,1,0,1,0,0,3,185,1,1,0,true
0.9.6,3,1,0,0,0,1,30,0,185,2,5,0,false
0.9.6,3,1,0,0,0,0,0,0,185,1,1,0,false
0.9.0,1,1,0,0,0,0,1,0,0,1,4,0,false
0.9.0,4,4,1,0,0,0,2,1,37,3,9,0,false
0.9.6,3,2,0,0,0,1,4,0,185,4,7,0,false
0.9.0,3,1,0,0,0,1,1,0,37,2,3,0,false
0.9.6,8,2,0,0,1,1,0,2,185,2,2,1,true
0.9.0,3,1,0,0,0,1,0,0,0,1,4,0,false
0.9.6,5,1,1,0,0,1,1,0,185,4,16,0,false
0.9.6,3,1,0,0,0,0,0,0,185,4,14,0,true
0.9.0,3,1,0,0,0,1,10,4,45,3,13,0,false
0.9.6,3,2,0,0,0,1,0,0,78,2,2,0,false
0.9.0,3,1,0,0,0,1,0,0,0,1,4,0,false
0.9.6,3,1,0,0,0,1,0,1,185,3,10,0,false
0.9.6,3,1,0,0,0,0,0,1,168,2,3,0,false
0.9.0,12,7,4,2,0,4,1,5,45,3,8,0,false
0.9.0,13,3,1,0,1,1,0,3,45,3,7,0,false
0.9.6,24,10,5,0,1,3,1,3,185,1,1,7,true
0.9.6,3,2,0,0,0,0,4,1,185,4,19,0,true
0.9.6,1,1,0,0,0,0,1,0,168,1,1,0,true
0.9.6,1,1,0,0,0,0,0,0,185,2,5,0,false
0.9.0,3,1,0,0,0,1,0,3,45,2,7,0,false
0.9.0,3,1,0,0,0,1,0,0,45,1,7,0,false
0.9.0,3,1,0,0,0,1,11,0,45,3,8,0,false
0.9.0,1,1,0,0,0,0,1,0,45,3,8,0,false
0.9.0,3,2,0,0,0,1,0,0,37,1,2,0,false
0.9.0,3,1,0,0,0,1,0,1,45,3,13,0,false
0.9.0,3,1,1,0,0,0,0,0,45,1,7,0,false
0.9.0,3,1,0,0,0,1,0,1,45,3,13,0,false
0.9.6,55,16,18,0,4,4,2,3,168,1,2,4,false
0.9.6,3,1,0,0,0,1,0,0,185,2,3,0,true
0.9.6,3,1,0,0,0,0,0,0,185,2,4,0,false
0.9.6,8,5,1,0,0,4,0,1,168,1,1,1,false
0.9.0,3,1,1,0,0,0,0,0,45,1,4,0,false
0.9.0,2,1,0,0,0,0,2,0,45,2,6,0,false
0.9.0,4,1,0,0,0,0,0,2,45,3,13,0,false
0.9.6,3,1,1,0,0,0,0,0,185,2,3,0,true
0.9.0,9,1,0,0,1,1,0,4,45,3,11,0,false
0.9.6,3,1,0,0,0,0,1,1,168,2,3,0,false
0.9.6,3,1,0,0,0,1,0,1,185,3,10,0,false
0.9.6,3,1,0,0,0,0,0,0,185,2,4,0,false
0.9.6,3,1,0,0,0,1,0,0,185,1,2,0,false
0.9.6,2,1,0,0,0,0,0,0,168,2,2,0,false
0.9.0,4,1,0,0,0,0,1,1,37,2,4,0,false
0.9.6,3,1,0,0,0,0,0,0,185,2,5,0,false
0.9.0,1,1,0,0,0,0,0,0,45,3,8,0,false
0.9.6,3,1,0,0,0,1,1,0,185,2,2,0,true
0.9.0,3,1,0,0,0,0,0,0,0,1,6,0,false
0.9.0,11,5,3,0,0,0,0,1,0,1,6,0,false
0.9.0,2,1,0,0,0,0,0,0,37,1,2,0,false
0.9.6,4,2,0,0,0,2,0,0,94,2,2,0,false
0.9.0,1,1,0,0,0,0,0,0,45,3,6,0,false
0.9.0,7,1,1,0,0,1,3,3,37,2,4,0,false
0.9.0,3,1,0,0,0,1,1,0,45,3,8,0,false
0.9.0,4,1,0,0,0,0,0,1,0,1,8,0,false
0.9.6,6,2,0,0,0,0,1,2,185,3,6,0,true
0.9.0,3,1,0,0,0,1,0,1,37,2,3,0,false
0.9.6,11,4,2,0,1,0,2,3,185,4,16,0,false
0.9.6,3,1,1,0,0,0,4,0,185,2,5,0,false
0.9.6,6,2,3,0,0,0,0,1,168,3,5,2,false
0.9.6,3,1,0,0,0,1,0,0,168,3,5,0,false
0.9.6,1,1,0,0,0,0,0,0,185,2,5,0,false
0.9.0,3,1,0,0,0,1,0,1,37,2,4,0,false
0.9.6,2,1,0,0,0,0,0,0,168,2,2,0,false
0.9.0,1,1,0,0,0,0,1,0,45,2,5,0,false
0.9.6,3,1,0,0,0,1,0,0,185,3,5,0,false
0.9.0,3,1,0,0,0,1,0,0,45,2,4,0,false
0.9.6,1,1,0,0,0,0,1,0,185,2,4,0,false
0.9.0,3,1,0,0,0,1,0,1,45,2,7,0,false
0.9.0,1,1,0,0,0,0,0,0,45,3,8,0,false
0.9.6,3,1,0,0,0,0,1,0,185,1,1,0,false
0.9.0,3,2,0,0,0,1,4,0,45,2,6,0,false
0.9.6,3,1,0,0,0,0,0,0,185,2,4,0,false
0.9.0,23,17,5,2,0,0,1,0,0,1,8,0,false
0.9.6,20,8,0,0,0,8,2,0,185,3,6,0,false
0.9.0,1,1,0,0,0,0,2,0,45,3,6,0,false
0.9.0,3,1,0,0,0,1,2,0,37,2,2,0,false
0.9.0,3,1,0,0,0,1,2,0,45,1,4,0,false
0.9.0,43,11,11,0,4,1,0,7,37,1,2,10,false
0.9.6,55,25,16,0,0,1,3,13,185,2,5,12,false
0.9.0,3,1,0,0,0,1,0,0,0,1,4,0,false
0.9.6,17,12,3,0,0,0,1,1,185,4,19,1,true
0.9.0,3,1,0,0,0,1,0,2,45,2,5,0,false
0.9.0,8,4,1,0,0,1,17,5,37,2,3,0,false
0.9.6,10,6,4,0,0,2,1,5,185,4,16,5,false
0.9.6,4,2,0,0,0,2,0,0,185,4,13,0,true
0.9.0,6,2,2,0,0,0,4,6,45,2,6,0,false
0.9.0,3,1,0,0,0,1,0,0,45,3,7,0,false
0.9.0,3,1,1,0,0,0,0,0,45,2,7,0,false
0.9.0,10,5,3,0,0,3,0,1,45,3,6,0,false
0.9.6,4,1,1,0,0,1,0,1,168,2,5,2,true
0.9.0,3,1,0,0,0,0,0,0,0,1,5,0,false
0.9.0,13,6,3,0,0,3,3,8,45,4,9,3,false
0.9.6,3,1,0,0,0,1,3,1,168,2,2,0,false
0.9.0,17,14,1,0,1,6,0,11,0,1,5,0,false
0.9.0,8,6,0,0,0,6,3,0,45,2,6,0,false
0.9.0,3,1,0,0,0,0,0,2,45,3,13,0,false
0.9.6,3,1,0,0,0,1,0,0,185,1,1,0,false
0.9.6,3,1,0,0,0,0,0,0,168,3,5,0,false
0.9.0,3,2,0,0,0,1,0,2,37,2,2,0,false
0.9.6,3,1,1,0,0,0,0,0,185,2,2,0,false
0.9.6,3,1,0,0,0,0,0,0,185,1,1,0,false
0.9.0,3,1,0,0,0,0,0,0,0,1,4,0,false
0.9.6,1,1,0,0,0,0,4,0,185,1,2,0,false
0.9.6,3,1,0,0,0,1,0,0,185,2,5,0,false
0.9.0,3,2,0,0,0,0,2,2,45,2,7,0,false
0.9.0,3,1,0,0,0,1,0,0,0,1,6,0,false
0.9.0,5,1,1,0,0,1,0,2,0,1,6,0,false
0.9.0,3,1,0,0,0,1,0,0,37,2,2,0,false
0.9.6,3,1,0,0,0,1,0,0,168,2,7,0,false
0.9.0,4,2,2,0,0,0,0,0,37,1,2,0,false
0.9.0,3,1,0,0,0,1,0,0,45,2,5,0,false
0.9.6,3,1,0,0,0,0,0,1,168,2,3,0,false
0.9.6,3,1,0,0,0,1,0,0,83,2,2,0,false
0.9.6,3,1,0,0,0,1,0,0,185,4,19,0,true
0.9.6,3,1,0,0,0,0,0,0,168,3,5,0,false
0.9.0,19,6,4,0,1,0,0,6,0,2,12,2,false
0.9.6,3,1,0,0,0,1,0,1,168,2,2,0,false
0.9.6,3,2,1,0,0,0,1,1,185,1,1,0,false
0.9.6,3,1,0,0,0,1,1,1,168,2,3,0,false
0.9.0,3,1,1,0,0,0,1,0,45,2,7,0,false
0.9.0,7,6,3,0,0,2,4,3,45,3,13,1,false
0.9.6,3,1,0,0,0,1,0,1,185,4,5,0,false
0.9.0,3,1,0,0,0,1,0,1,45,2,8,1,false
0.9.0,3,1,0,0,0,1,0,0,45,1,4,0,false
0.9.6,3,1,0,0,0,1,3,0,168,2,2,0,false
0.9.0,3,1,0,0,0,1,0,0,45,3,13,0,false
0.9.6,13,2,0,0,0,0,0,0,168,1,1,0,false
0.9.0,13,5,4,1,1,2,2,2,45,2,6,3,false
0.9.6,23,5,3,0,0,1,1,3,94,2,2,1,false
0.9.6,3,1,0,0,0,1,0,0,62,1,2,0,false
0.9.0,4,1,1,0,0,0,0,0,37,2,6,0,false
0.9.0,3,1,0,0,0,1,0,1,37,2,4,0,false
0.9.0,3,1,0,0,0,1,0,0,45,3,6,0,false
0.9.6,3,1,0,0,0,0,0,0,168,3,5,0,false
0.9.6,3,1,0,0,0,1,0,0,185,4,19,0,true
0.9.0,6,3,1,0,0,3,0,0,45,3,11,2,false
0.9.6,4,2,1,0,0,0,0,1,149,2,2,0,false
0.9.0,8,2,0,0,1,1,1,2,45,3,7,1,false
0.9.0,4,1,0,0,0,0,0,2,45,3,13,0,false
0.9.0,3,1,0,0,0,0,0,1,37,2,3,0,false
0.9.6,8,1,0,0,0,1,0,0,185,1,1,0,false
0.9.0,3,1,0,0,0,1,0,0,0,1,4,0,false
0.9.6,5,3,0,0,0,3,3,2,185,4,13,1,true
0.9.0,3,1,0,0,0,1,0,0,45,2,6,0,false
0.9.6,1,1,0,0,0,0,1,0,185,2,2,0,true
0.9.0,3,2,1,0,0,0,0,1,0,2,6,0,false
0.9.0,4,2,1,0,0,1,0,1,37,2,4,0,false
0.9.0,1,1,0,0,0,0,4,0,45,2,5,0,false
0.9.6,2,1,0,0,0,0,0,0,185,3,5,0,true
0.9.0,3,1,1,0,0,0,0,0,37,2,6,0,false
0.9.0,3,1,0,0,0,1,0,0,0,1,4,0,false
0.9.0,1,1,0,0,0,0,2,0,45,3,8,0,false
0.9.0,5,4,1,0,0,2,0,0,45,2,6,4,false
0.9.6,3,1,1,0,0,0,0,0,0,1,1,0,false
0.9.6,3,1,0,0,0,0,0,3,185,2,3,0,true
0.9.6,1,1,0,0,0,0,0,0,168,3,5,0,false
0.9.6,3,1,0,0,0,0,0,1,168,3,5,0,false
0.9.0,6,3,1,0,0,2,1,2,37,2,3,0,false
0.9.0,4,1,0,0,0,0,0,2,45,3,13,0,false
0.9.0,5,1,0,0,0,0,0,0,45,2,6,0,false
0.9.6,63,32,10,0,0,19,8,3,185,1,1,9,false
0.9.6,3,1,0,0,0,1,38,0,185,2,5,0,false
0.9.0,3,1,0,0,0,1,0,0,45,3,11,0,false
0.9.0,4,1,1,0,0,1,0,0,37,3,9,2,false
0.9.0,5,2,1,0,0,1,2,1,37,2,3,0,false
0.9.0,8,1,5,0,0,0,5,0,37,2,3,0,false
0.9.6,14,5,5,0,0,1,1,0,185,1,1,2,true
0.9.0,7,3,2,0,0,1,4,4,45,3,8,2,false
0.9.0,3,1,0,0,0,1,6,1,45,2,8,0,false
0.9.0,5,1,2,0,0,0,0,0,45,2,8,0,false
0.9.6,8,8,1,0,0,2,31,2,168,1,1,0,false
0.9.6,3,1,0,0,0,1,0,0,168,2,2,0,false
0.9.6,3,1,0,0,0,1,0,1,185,2,3,0,true
0.9.6,3,1,0,0,0,0,0,0,185,1,1,0,false
0.9.6,6,5,1,0,0,2,2,4,185,2,3,0,true
0.9.0,3,1,0,0,0,0,0,0,45,2,8,0,false
0.9.0,1,1,0,0,0,0,3,0,45,2,5,0,false
0.9.0,3,1,0,0,0,1,0,0,0,1,4,0,false
0.9.6,3,1,0,0,0,1,0,0,185,1,1,0,false
0.9.6,2,1,0,0,0,0,0,0,185,3,5,0,false
0.9.6,7,6,4,5,0,2,1,0,185,3,9,2,false
0.9.0,8,2,0,0,1,0,0,2,45,3,7,1,false
0.9.6,4,1,0,0,0,1,0,0,168,2,2,0,false
0.9.6,3,1,0,0,0,0,0,0,168,3,5,0,false
0.9.6,7,1,1,0,0,1,2,0,185,1,1,2,false
0.9.6,8,3,3,0,0,0,1,3,168,1,1,2,false
0.9.6,3,1,0,0,0,0,0,0,185,2,4,0,false
0.9.6,24,1,5,0,0,0,1,0,185,2,2,11,false
0.9.6,3,1,0,0,0,1,0,0,185,4,19,0,true
0.9.6,3,1,0,0,0,1,1,1,185,4,16,0,false
0.9.6,1,1,0,0,0,0,0,0,185,2,5,0,false
0.9.0,10,3,2,0,0,0,0,0,37,2,2,1,false
0.9.6,3,1,0,0,0,0,0,0,185,2,4,0,false
0.9.0,4,2,1,0,0,0,1,1,45,1,4,0,false
0.9.0,3,2,0,0,0,1,1,0,37,2,4,1,false
0.9.6,1,1,0,0,0,0,0,0,185,2,5,0,false
0.9.0,3,1,0,0,0,1,0,0,45,1,3,0,false
0.9.6,3,1,0,0,0,1,0,0,185,3,6,0,true
0.9.0,10,5,4,0,0,3,1,1,0,1,7,0,false
0.9.0,3,1,0,0,0,1,0,0,0,1,5,0,false
0.9.6,3,1,0,0,0,0,1,0,168,2,5,0,true
0.9.6,3,1,0,0,0,0,0,0,168,3,5,0,false
0.9.6,4,2,0,0,0,2,0,0,168,1,1,1,true
0.9.0,11,3,4,2,0,0,0,0,45,2,8,0,false
0.9.6,10,4,0,0,1,0,2,4,185,4,19,0,true
0.9.6,3,1,0,0,0,0,0,0,185,2,4,0,false
0.9.0,17,1,6,0,1,1,1,17,45,2,8,0,false
0.9.6,3,1,0,0,0,1,2,1,185,2,2,0,false
0.9.6,3,1,0,0,0,1,2,0,185,2,2,0,false
0.9.0,1,1,0,0,0,0,3,0,45,1,3,0,false
0.9.0,4,1,1,0,0,1,0,1,45,2,4,0,false
0.9.0,3,2,0,0,0,1,0,1,37,2,6,0,false
0.9.6,3,1,0,0,0,1,0,0,185,1,1,0,false
0.9.0,1,1,0,0,0,0,0,0,0,1,6,0,false
0.9.0,3,1,0,0,0,1,0,0,45,3,13,0,false
0.9.0,3,1,0,0,0,1,4,0,45,3,8,0,false
0.9.6,7,4,2,0,0,0,0,1,94,2,2,0,false
0.9.0,3,1,0,0,0,1,0,0,45,3,11,0,false
0.9.6,3,1,0,0,0,1,0,2,185,2,4,1,false
0.9.6,8,2,0,0,1,2,0,0,168,1,1,0,false
0.9.0,3,2,1,0,0,0,2,0,45,3,10,0,false
0.9.0,3,1,0,0,0,0,3,1,45,2,5,0,false
0.9.6,23,6,6,1,1,1,2,2,185,3,9,0,false
0.9.0,3,1,0,0,0,1,0,0,0,1,4,0,false
0.9.0,4,2,0,0,0,2,5,0,45,1,4,0,false
0.9.6,3,1,0,0,0,1,0,0,168,3,3,0,false
0.9.0,11,3,1,0,1,1,0,2,45,3,11,0,false
0.9.6,3,1,0,0,0,1,2,0,185,1,1,0,false
0.9.0,3,1,0,0,0,1,0,0,45,1,5,0,false
0.9.6,1,1,0,0,0,0,0,0,185,2,5,0,false
0.9.0,1,1,0,0,0,0,1,0,45,2,5,0,false
0.9.6,11,4,2,0,1,1,1,0,168,2,5,2,true
0.9.6,3,2,0,0,0,0,1,1,185,2,4,0,false
0.9.0,13,4,1,0,1,0,6,0,45,3,11,3,false
0.9.0,3,1,1,0,0,0,1,0,45,2,8,0,false
0.9.6,4,3,0,0,0,1,1,1,185,1,1,0,false
0.9.6,3,1,0,0,0,1,0,0,185,4,19,0,true
0.9.0,6,3,2,0,0,1,0,2,0,1,8,0,false
0.9.6,2,1,0,0,0,0,1,0,185,2,2,0,false
0.9.0,5,5,0,0,0,3,1,2,37,3,6,0,false
0.9.0,3,1,0,0,0,1,0,0,45,3,6,0,false
0.9.6,3,1,0,0,0,0,1,1,185,2,2,0,true
0.9.0,2,1,0,0,0,0,0,0,37,2,3,0,false
0.9.0,19,7,1,0,1,4,0,9,45,3,11,5,false
0.9.6,14,8,0,0,0,3,0,0,168,2,2,0,false
0.9.0,3,1,0,0,0,1,0,0,0,1,6,0,false
0.9.0,3,1,0,0,0,1,0,0,45,2,4,0,false
0.9.6,13,4,0,0,0,0,1,0,168,2,2,0,false
0.9.0,3,1,1,0,0,0,0,0,45,2,5,0,false
0.9.0,3,1,0,0,0,1,7,0,45,3,13,0,false
0.9.0,3,1,0,0,0,1,0,1,45,2,6,1,false
0.9.6,1,1,0,0,0,0,0,0,185,2,5,0,false
0.9.0,3,1,0,0,0,0,0,1,45,3,10,0,false
0.9.0,3,1,0,1,0,1,0,0,45,3,11,0,false
0.9.6,3,1,0,0,0,1,1,0,185,2,6,0,true
0.9.0,3,1,0,0,0,1,1,0,37,2,4,0,false
0.9.0,6,3,2,1,0,0,1,3,45,3,8,2,false
0.9.0,21,6,4,0,0,1,0,10,37,2,5,3,false
0.9.0,3,1,0,0,0,1,0,0,0,1,8,0,false
0.9.0,7,2,2,0,0,0,0,1,0,1,8,1,false
0.9.0,11,1,6,0,0,1,1,7,45,1,4,2,false
0.9.0,3,1,0,0,0,1,0,0,37,3,6,0,false
0.9.6,6,2,1,0,0,0,1,4,185,3,6,1,true
0.9.0,16,5,5,0,0,0,0,4,45,1,4,3,false
0.9.6,5,4,2,0,0,3,1,0,185,3,5,1,false
0.9.6,10,4,4,0,0,1,8,4,185,3,6,1,true
0.9.6,3,1,0,0,0,1,0,1,168,3,4,0,false
0.9.0,3,1,0,0,0,1,0,0,45,2,5,0,false
0.9.6,3,1,0,0,0,0,2,1,185,3,6,0,true
0.9.6,5,3,2,0,0,2,1,1,168,2,6,0,false
0.9.0,3,1,0,0,0,1,1,0,45,2,6,0,false
0.9.0,3,1,0,0,0,0,1,1,37,2,4,0,false
0.9.0,2,1,0,0,0,0,0,0,0,1,5,0,false
0.9.0,3,1,0,0,0,1,1,3,45,1,5,0,false
0.9.0,3,1,0,0,0,1,0,0,37,2,2,0,false
0.9.0,3,1,0,0,0,1,0,1,45,2,6,1,false
0.9.6,3,1,0,0,0,1,0,0,94,1,2,0,false
0.9.6,3,1,0,0,0,1,0,1,168,2,3,0,false
0.9.6,3,1,0,0,0,0,0,0,185,2,4,0,false
0.9.6,3,1,1,0,0,0,3,0,168,1,1,0,false
0.9.0,4,1,1,0,0,1,22,0,45,1,4,0,false
0.9.0,3,1,0,0,0,0,0,3,45,3,7,0,false
0.9.0,3,2,0,0,0,0,0,1,45,3,13,0,false
0.9.6,3,1,0,0,0,1,0,0,185,2,2,0,true
0.9.6,7,5,2,0,0,1,0,0,185,3,5,1,true
0.9.0,3,1,0,0,0,1,0,0,0,1,6,0,false
0.9.0,3,1,0,0,0,1,0,0,37,2,2,0,false
0.9.0,5,1,2,0,0,0,0,0,0,1,5,0,false
0.9.6,3,1,0,0,0,0,0,0,185,1,1,0,false
0.9.6,2,1,0,0,0,0,0,0,168,1,1,0,false
0.9.0,3,1,1,0,0,0,0,0,37,2,5,0,false
0.9.0,1,1,0,0,0,0,2,0,45,2,5,0,false
0.9.6,3,1,0,0,0,1,0,2,185,2,2,0,false
0.9.6,3,1,0,0,0,0,0,1,168,1,1,0,false
0.9.0,6,2,2,0,0,2,1,1,0,1,8,0,false
0.9.0,2,1,0,0,0,0,0,0,45,1,3,0,false
0.9.0,3,1,0,0,0,1,0,0,0,2,9,0,false
0.9.6,15,7,5,0,0,4,8,3,94,1,1,2,false
0.9.0,3,1,0,0,0,1,1,1,0,1,6,1,false
0.9.6,3,1,0,0,0,1,1,0,185,3,9,1,false
0.9.0,27,9,2,0,0,2,1,4,45,2,6,15,false
0.9.0,5,3,0,0,0,3,12,0,0,1,6,0,false
0.9.0,1,1,0,0,0,0,3,0,37,2,3,0,false
0.9.0,3,1,1,0,0,0,0,0,37,2,3,0,false
0.9.0,3,1,0,0,0,1,0,0,37,2,4,0,false
0.9.0,3,1,0,0,0,1,11,0,45,3,10,0,false
0.9.0,16,5,0,0,1,0,0,5,45,3,11,1,false
0.9.6,3,2,0,0,0,1,0,0,185,2,5,0,false
0.9.6,3,1,0,0,0,1,0,0,185,1,1,0,false
0.9.6,3,2,0,0,0,1,1,0,185,4,19,0,true
0.9.6,3,1,0,0,0,1,8,0,185,4,16,0,false
0.9.0,3,1,0,0,0,1,2,1,45,3,8,0,false
0.9.0,4,1,1,0,0,0,1,1,45,3,11,0,false
0.9.0,3,1,0,0,0,1,1,0,45,1,4,0,false
0.9.0,3,2,1,0,0,0,1,1,45,2,4,0,false
0.9.0,3,1,0,0,0,1,0,0,37,2,6,0,false
0.9.0,3,1,0,0,0,1,6,0,37,2,5,0,false
0.9.0,1,1,0,0,0,0,1,0,45,3,8,0,false
0.9.6,3,1,1,0,0,0,0,0,185,2,5,0,false
0.9.6,4,1,0,0,0,0,0,2,185,3,10,0,false
0.9.0,6,2,3,0,0,0,1,0,45,3,11,1,false
0.9.6,40,3,10,0,0,0,1,1,185,2,2,12,false
0.9.0,4,1,1,0,0,0,0,0,0,1,8,0,false
0.9.6,3,1,0,0,0,0,0,0,168,3,5,0,false
0.9.6,3,1,0,0,0,1,1,0,94,2,2,0,false
0.9.0,13,5,6,1,0,1,0,0,45,1,5,0,false
0.9.0,12,7,4,0,0,0,2,4,45,3,13,0,false
0.9.6,3,1,0,0,0,1,0,0,168,2,6,0,false
0.9.0,3,1,0,0,0,1,0,0,45,2,6,0,false
0.9.0,63,32,10,0,0,19,4,3,45,2,10,8,false
0.9.6,3,1,0,0,0,1,2,0,185,4,13,0,true
0.9.0,3,1,0,0,0,0,0,0,45,3,7,0,false
0.9.6,6,3,2,0,0,2,0,1,168,3,5,2,false
0.9.6,4,2,1,0,0,1,4,1,185,1,1,2,false
0.9.0,3,1,0,0,0,1,2,1,45,3,13,0,false
0.9.6,8,6,3,2,0,1,9,2,185,2,5,3,false
0.9.6,3,1,0,0,0,1,1,1,168,2,2,0,false
0.9.6,3,1,1,0,0,0,1,0,168,1,2,0,false
0.9.0,9,4,1,0,0,4,0,0,37,2,6,1,false
0.9.6,1,1,0,0,0,0,0,0,185,2,5,0,false
0.9.6,3,1,0,0,0,1,0,1,168,2,3,0,false
0.9.6,1,1,0,0,0,0,0,0,185,2,5,0,false
0.9.6,3,1,0,0,0,0,0,0,168,1,1,0,false
0.9.0,46,12,4,0,0,2,1,5,45,2,6,57,false
0.9.6,4,2,0,0,0,2,0,2,185,2,5,0,false
0.9.0,3,1,0,0,0,1,4,0,45,3,8,0,false
0.9.0,8,4,1,0,0,2,0,2,45,3,8,0,false
0.9.6,3,1,0,0,0,1,0,0,168,1,1,0,false
0.9.0,10,2,1,0,1,1,0,4,0,1,8,0,false
0.9.0,3,1,0,0,0,1,0,2,45,2,7,0,false
0.9.6,3,1,0,0,0,1,0,1,185,3,10,0,false
0.9.6,4,1,0,0,0,0,0,2,185,3,10,0,false
0.9.6,4,3,0,0,0,2,0,0,168,2,2,0,false
0.9.6,3,1,0,0,0,1,2,0,94,1,1,0,false
0.9.6,3,1,0,0,0,0,5,0,168,2,5,0,true
0.9.0,18,5,3,0,0,2,1,2,37,2,3,1,false
0.9.6,11,6,3,0,0,3,18,1,185,3,9,1,false
0.9.0,4,2,1,0,0,1,10,2,45,3,13,1,false
0.9.6,3,1,0,0,0,1,0,0,168,3,3,0,false
0.9.6,7,4,1,1,0,4,0,2,78,2,2,2,false
0.9.6,3,1,0,0,0,1,0,0,185,1,3,0,true
0.9.0,13,5,1,0,0,1,2,5,37,2,3,1,false
0.9.0,2,1,0,0,0,0,0,0,45,3,6,0,false
0.9.6,3,1,0,0,0,0,0,0,168,3,5,0,false
0.9.6,1,1,0,0,0,0,5,0,168,2,2,0,false
0.9.6,1,1,0,0,0,0,0,0,185,2,5,0,false
0.9.6,18,15,9,0,0,0,0,1,168,2,3,6,false
0.9.6,3,1,0,0,0,0,1,1,185,3,6,0,true
0.9.6,3,1,0,0,0,0,0,0,168,1,1,0,false
0.9.6,14,4,3,0,1,0,0,0,168,2,2,1,false
0.9.6,4,1,0,0,0,0,0,0,168,1,1,0,false
0.9.0,5,4,1,0,0,1,3,1,45,2,6,0,false
0.9.0,3,1,0,0,0,1,1,0,45,1,4,0,false
0.9.0,17,5,7,0,0,2,0,4,37,3,6,0,false
0.9.6,1,1,0,0,0,0,1,0,185,1,2,0,false
0.9.0,3,1,0,0,0,1,0,0,37,2,4,0,false
0.9.0,3,1,0,0,0,1,0,0,0,1,4,0,false
0.9.0,1,1,0,0,0,0,1,0,45,3,8,0,false
0.9.6,3,1,0,0,0,1,0,0,168,1,2,0,false
0.9.0,1,1,0,0,0,0,10,0,37,2,3,0,false
0.9.0,3,1,0,0,0,1,0,0,45,3,7,0,false
0.9.0,3,1,0,0,0,1,4,0,45,3,13,0,false
0.9.6,8,1,0,0,1,1,0,2,185,2,2,0,true
0.9.6,3,1,0,0,0,1,0,1,168,1,1,0,false
0.9.6,3,1,0,0,0,1,0,1,168,2,3,0,false
0.9.6,3,1,0,0,0,0,0,0,168,3,5,0,false
0.9.6,3,1,0,0,0,1,0,0,185,2,3,0,true
0.9.0,2,1,0,0,0,0,0,0,45,2,5,0,false
0.9.0,3,1,0,0,0,1,1,0,45,3,7,0,false
0.9.0,3,2,0,0,0,1,0,1,37,1,2,0,false
0.9.6,3,2,0,0,0,1,0,0,168,1,1,0,false
0.9.0,6,8,2,0,0,1,4,2,0,1,6,2,false
0.9.6,3,1,0,0,0,1,0,0,168,1,2,0,false
0.9.6,1,1,0,0,0,0,1,0,168,1,2,0,false
0.9.0,6,1,3,0,0,0,6,1,45,3,8,0,false
0.9.0,3,2,0,0,0,1,17,0,45,1,4,0,false
0.9.6,1,1,0,0,0,0,1,0,185,2,2,0,true
0.9.0,3,1,0,0,0,0,0,0,0,1,6,0,false
0.9.6,6,3,0,0,0,2,1,0,185,3,5,0,true
0.9.6,1,1,0,0,0,0,13,0,185,2,2,0,true
0.9.0,5,4,0,0,0,3,2,3,45,2,6,1,false
0.9.0,3,1,0,0,0,1,1,0,45,2,6,0,false
0.9.6,3,1,0,0,0,1,0,0,168,1,1,0,false
0.9.0,3,1,0,0,0,1,0,1,45,3,13,0,false
0.9.0,1,1,0,0,0,0,1,0,45,2,5,0,false
0.9.6,3,1,0,0,0,0,0,1,168,1,1,0,false
0.9.0,3,2,0,0,0,1,5,1,0,1,5,0,false
0.9.6,16,1,3,0,0,0,1,0,185,2,2,15,false
0.9.6,12,15,4,0,0,6,2,2,185,1,1,3,false
0.9.6,1,1,0,0,0,0,1,0,185,2,2,0,true
0.9.6,8,2,0,0,1,0,0,2,185,2,2,1,true
0.9.6,12,5,3,0,1,2,0,3,185,1,1,1,false
0.9.6,4,1,2,0,0,0,1,0,168,2,7,0,false
0.9.0,3,2,1,0,0,0,0,0,45,3,7,0,false
0.9.0,3,1,0,0,0,1,0,0,45,1,7,0,false
0.9.6,5,3,1,0,0,0,0,0,168,1,1,0,false
0.9.0,1,1,0,0,0,0,2,0,45,3,8,0,false
0.9.6,15,10,3,0,0,5,8,2,185,2,2,3,false
0.9.6,3,1,0,0,0,1,0,0,185,2,4,0,false
0.9.6,18,7,1,0,1,2,1,5,185,4,19,2,true
0.9.0,5,1,3,0,0,0,3,0,37,2,4,0,false
0.9.6,3,1,0,0,0,1,0,0,168,1,3,0,false
0.9.6,3,2,0,0,0,1,0,2,168,1,2,1,false
0.9.6,8,7,4,0,0,0,1,2,168,2,2,0,false
0.9.6,3,1,0,0,0,1,1,0,185,3,6,0,true
0.9.6,4,3,1,0,0,0,0,1,94,2,2,0,false
0.9.0,3,1,0,0,0,1,6,0,0,2,9,0,false
0.9.0,3,1,0,0,0,1,0,1,45,2,6,0,false
0.9.0,3,1,0,0,0,1,1,1,0,1,7,0,false
0.9.0,3,1,0,0,0,1,0,0,37,2,3,0,false
0.9.0,3,1,0,0,0,1,0,0,45,2,7,0,false
0.9.0,1,1,0,0,0,0,3,0,45,2,5,0,false
0.9.6,5,2,1,0,0,0,0,1,168,2,7,1,false
0.9.0,3,1,0,0,0,1,0,0,0,1,6,0,false
0.9.6,34,16,2,0,1,7,0,15,185,4,19,10,true
0.9.0,3,1,1,0,0,0,1,0,45,3,8,0,false
0.9.0,19,14,6,0,0,1,25,8,37,2,6,3,false
0.9.6,3,1,0,0,0,1,2,1,185,3,5,0,true
0.9.0,1,1,0,0,0,0,2,0,45,2,7,0,false
0.9.6,8,2,0,0,1,1,0,2,185,2,2,1,true
0.9.0,3,1,1,0,0,0,0,0,45,1,4,0,false
0.9.6,3,1,0,0,0,1,0,0,94,1,1,0,false
0.9.0,3,1,0,0,0,1,0,0,0,1,5,0,false
0.9.6,3,1,0,0,0,1,0,0,185,2,4,0,false
0.9.6,3,1,0,0,0,1,0,0,185,1,1,0,false
0.9.6,3,1,0,0,0,1,4,1,185,4,19,0,true
0.9.6,4,2,1,0,0,1,0,1,168,2,3,0,false
0.9.6,1,1,0,0,0,0,0,0,185,2,5,0,false
0.9.0,3,2,0,0,0,1,0,1,37,2,6,0,false
0.9.6,9,3,2,0,0,0,0,0,168,1,1,0,false
0.9.6,10,3,5,4,0,1,0,1,168,3,5,1,false
0.9.6,3,1,0,1,0,1,0,1,168,1,2,0,false
0.9.6,3,1,0,0,0,1,0,0,168,2,5,0,false
0.9.6,3,1,0,0,0,1,0,0,168,1,1,0,false
0.9.0,4,1,0,0,0,0,0,2,45,3,13,0,false
0.9.0,1,1,0,0,0,0,0,0,45,2,5,0,false
0.9.0,10,4,4,0,0,1,4,4,37,2,3,1,false
0.9.6,32,7,10,0,1,1,1,9,168,1,3,0,false
0.9.0,3,1,0,0,0,1,0,1,37,3,6,0,false
0.9.0,5,1,1,0,0,1,0,1,0,1,4,0,false
0.9.6,3,1,0,0,0,0,0,1,168,1,1,0,false
0.9.6,5,1,1,0,0,0,0,0,168,2,3,0,false
0.9.6,3,1,0,0,0,1,2,0,94,1,1,0,false
0.9.0,3,3,0,0,0,0,2,5,45,3,13,0,false
0.9.6,3,1,0,0,0,1,0,0,168,1,3,0,false
0.9.6,1,1,0,0,0,0,1,0,185,2,2,0,true
0.9.6,9,3,2,0,0,0,0,2,168,2,6,0,false
0.9.0,4,2,1,0,0,1,1,1,45,1,4,0,false
0.9.6,22,8,4,0,0,0,0,0,168,2,2,7,false
0.9.0,5,3,1,0,0,2,1,1,45,1,4,0,false
0.9.6,3,1,0,0,0,1,0,1,168,2,7,0,false
0.9.0,3,1,0,0,0,1,0,1,37,1,2,0,false
0.9.0,12,4,5,0,0,3,4,2,37,1,2,2,false
0.9.6,4,2,2,0,0,0,0,6,168,1,2,0,false
0.9.0,3,2,0,0,0,0,4,0,45,2,5,0,false
0.9.6,3,1,0,0,0,0,0,0,168,3,5,0,false
0.9.0,3,1,0,0,0,0,0,0,0,1,6,0,false
0.9.0,3,1,0,0,0,1,0,0,37,2,5,0,false
0.9.0,3,1,0,0,0,1,0,0,45,2,5,0,false
0.9.0,3,1,1,0,0,0,0,0,37,2,2,0,false
0.9.0,3,1,0,0,0,1,0,1,37,2,4,0,false
0.9.0,3,1,0,0,0,1,1,1,45,3,13,0,false
0.9.0,4,2,1,0,0,0,3,1,45,3,10,0,false
0.9.0,3,1,0,0,0,0,0,0,0,1,5,0,false
0.9.0,3,1,0,0,0,1,0,1,45,1,4,0,false
0.9.6,38,15,5,0,0,4,1,9,185,1,1,23,false
0.9.6,2,1,0,0,0,0,0,0,185,3,5,0,true
0.9.6,4,1,1,0,0,1,0,1,168,3,5,1,false
0.9.6,15,5,3,2,0,1,1,0,168,2,3,0,false
0.9.6,3,1,0,0,0,1,0,0,185,3,9,0,false
0.9.0,4,1,0,0,0,0,0,1,45,4,9,0,false
0.9.0,4,2,1,0,0,0,0,1,45,2,6,0,false
0.9.6,4,2,2,0,0,0,3,0,185,2,4,0,false
0.9.0,4,2,0,0,0,2,1,0,37,2,4,0,false
0.9.6,3,1,0,0,0,0,1,1,185,4,14,0,true
0.9.6,7,5,4,2,0,1,2,0,168,3,6,3,false
0.9.6,3,2,0,0,0,1,3,1,185,1,3,2,true
0.9.6,3,1,0,0,0,0,0,0,185,1,1,0,false
0.9.0,10,3,3,0,0,2,3,2,37,2,3,0,false
0.9.6,8,3,2,0,0,2,1,0,185,4,16,1,false
0.9.0,3,1,0,0,0,0,0,3,45,2,7,0,false
0.9.0,3,1,0,0,0,1,1,1,37,2,4,0,false
0.9.6,55,31,23,4,0,0,1,11,94,1,2,22,false
0.9.0,1,1,0,0,0,0,2,0,45,1,4,0,false
0.9.6,3,1,0,0,0,1,0,1,168,2,3,0,false
0.9.0,3,1,0,0,0,1,0,0,0,1,5,0,false
0.9.0,5,3,0,0,0,3,0,1,45,2,7,0,false
0.9.0,3,1,0,0,0,1,2,0,45,3,8,0,false
0.9.0,7,3,2,0,0,1,0,0,37,2,4,2,false
0.9.0,3,1,0,0,0,1,1,0,0,1,4,0,false
0.9.6,1,1,0,0,0,0,0,0,185,2,4,0,false
0.9.0,4,2,0,0,0,1,0,2,0,1,8,0,false
0.9.0,6,2,3,0,0,0,8,5,45,3,13,1,false
0.9.6,5,2,2,0,0,0,0,0,168,1,1,0,false
0.9.0,3,1,0,0,0,1,0,0,0,1,4,0,false
0.9.0,3,1,0,0,0,0,0,0,45,2,5,0,false
0.9.0,3,1,0,0,0,1,0,1,37,2,4,0,false
0.9.6,3,1,0,0,0,1,0,0,185,2,5,0,false
0.9.0,1,1,0,0,0,0,2,0,45,3,6,0,false
0.9.6,21,11,3,0,1,1,1,14,185,4,14,2,true
0.9.6,3,1,0,0,0,1,0,2,185,2,3,0,true
0.9.0,3,1,0,0,0,0,0,1,37,2,4,0,false
0.9.0,3,1,0,0,0,1,0,0,45,2,5,0,false
0.9.0,4,2,0,0,0,1,0,4,45,2,7,0,false
0.9.0,11,6,2,0,0,0,3,6,45,3,13,4,false
0.9.6,9,4,1,4,0,4,0,4,185,2,3,0,true
0.9.6,1,1,0,0,0,0,1,0,168,1,2,0,false
0.9.0,16,5,7,0,0,1,2,3,37,2,3,7,false
0.9.0,3,1,0,0,0,1,0,0,0,1,4,0,false
0.9.6,3,1,0,0,0,1,0,0,168,1,1,0,false
0.9.6,1,1,0,0,0,0,1,0,168,2,2,0,false
0.9.0,1,1,0,0,0,0,3,0,37,2,2,0,false
0.9.6,28,10,6,0,1,1,1,7,185,4,19,4,true
0.9.6,6,7,2,2,0,3,0,0,94,1,1,0,false
0.9.6,3,1,0,0,0,1,0,0,185,2,4,0,false
0.9.6,4,1,0,0,0,0,0,1,185,1,2,0,true
0.9.0,1,1,0,0,0,0,0,0,45,1,4,0,false
0.9.0,18,5,5,0,1,2,2,1,45,1,5,2,false
0.9.6,3,1,1,0,0,0,0,0,0,1,1,0,false
0.9.0,6,4,0,2,0,1,0,1,0,1,5,0,false
0.9.0,5,2,0,0,0,2,0,3,45,3,11,0,false
0.9.0,3,1,0,0,0,0,0,1,45,3,10,0,false
0.9.6,3,1,0,0,0,0,0,1,185,2,2,0,true
0.9.0,3,1,0,0,0,0,7,2,45,3,13,0,false
0.9.0,21,11,1,0,0,2,0,0,45,2,4,3,false
0.9.6,2,1,0,0,0,0,0,0,185,2,2,0,false
0.9.6,3,1,0,0,0,1,0,1,185,4,13,1,true
0.9.0,3,1,0,0,0,0,0,0,0,1,4,0,false
0.9.0,3,1,0,0,0,1,0,1,45,2,7,0,false
0.9.0,8,1,1,0,0,1,1,5,45,2,5,0,false
0.9.6,3,1,0,0,0,1,0,0,0,1,1,0,false
0.9.6,5,2,0,0,0,2,0,0,185,1,2,0,false
0.9.6,3,1,0,0,0,1,0,1,185,1,2,0,false
0.9.6,4,1,0,0,0,0,0,2,185,1,2,0,true
0.9.6,3,1,1,0,0,0,0,0,168,3,3,0,false
0.9.6,5,2,2,0,0,0,1,0,168,1,1,0,false
0.9.0,11,2,0,0,1,0,2,5,45,3,11,0,false
0.9.6,3,2,0,0,0,0,1,0,168,1,1,0,false
0.9.0,3,1,0,0,0,1,0,0,45,2,5,0,false
0.9.0,3,2,0,0,0,1,25,0,45,2,5,0,false
0.9.0,9,3,0,1,0,3,0,2,37,3,3,0,false
0.9.0,3,1,0,0,0,1,0,0,37,2,6,0,false
0.9.0,15,6,4,0,1,2,1,2,45,2,6,1,false
0.9.6,3,2,0,0,0,0,0,1,185,2,2,0,true
0.9.6,8,2,1,0,0,1,3,1,185,2,2,0,true
0.9.6,8,2,0,0,1,1,0,2,185,2,2,1,true
0.9.6,8,4,1,0,0,2,0,2,185,4,13,0,true
0.9.6,3,1,1,0,0,0,0,0,185,4,13,0,true
0.9.6,4,1,0,0,0,0,0,1,94,1,1,0,false
0.9.6,3,1,0,0,0,1,0,0,185,2,3,0,true
0.9.0,3,1,0,0,0,1,1,0,45,1,4,0,false
0.9.0,3,1,0,0,0,1,0,0,37,2,2,0,false
0.9.6,7,5,3,0,0,2,2,1,168,2,5,0,true
0.9.0,3,2,0,0,0,1,0,0,37,2,3,0,false
0.9.0,3,1,0,0,0,1,0,0,37,2,4,0,false
0.9.6,3,2,0,0,0,1,0,0,185,4,19,0,true
0.9.0,3,1,0,0,0,1,0,0,0,1,5,0,false
0.9.6,3,1,0,0,0,1,1,1,168,1,2,0,false
0.9.6,4,2,0,0,0,2,0,1,185,2,3,0,false
0.9.0,6,2,0,0,0,1,0,2,37,3,6,0,false
0.9.6,21,4,4,0,2,0,0,7,185,4,19,0,true
0.9.6,3,1,0,0,0,1,2,0,168,2,7,0,false
0.9.0,3,1,0,0,0,0,0,0,45,2,5,0,false
0.9.6,4,1,2,0,0,0,0,0,168,1,1,1,false
0.9.0,1,1,0,0,0,0,1,0,45,1,3,0,false
0.9.6,3,1,0,0,0,1,0,0,185,1,1,0,false
0.9.6,10,3,6,2,0,2,1,1,168,2,2,0,false
0.9.0,1,1,0,0,0,0,5,0,45,2,5,0,false
0.9.0,3,1,0,0,0,1,0,1,45,2,7,0,false
0.9.6,3,1,0,0,0,0,0,0,185,1,2,0,false
0.9.0,3,1,0,0,0,1,0,0,0,1,4,0,false
0.9.6,3,1,0,0,0,1,0,1,185,1,1,1,false
0.9.0,3,1,0,0,0,0,0,0,45,3,7,0,false
0.9.0,3,1,0,0,0,1,0,0,37,2,6,0,false
0.9.0,3,1,0,0,0,0,0,1,45,3,13,0,false
0.9.0,3,1,0,0,0,1,0,0,45,1,3,0,false
0.9.6,3,1,0,0,0,1,0,1,185,2,3,0,true
0.9.0,3,1,0,0,0,1,2,1,0,1,7,0,false
0.9.6,7,4,3,0,0,2,0,1,168,3,6,2,false
0.9.0,3,1,0,0,0,1,0,0,0,2,6,0,false
0.9.6,3,1,0,0,0,0,0,0,185,2,5,0,false
0.9.6,7,3,2,0,0,1,3,3,185,4,13,2,true
0.9.0,5,2,1,0,0,1,0,1,0,2,7,1,false
0.9.6,3,1,0,0,0,1,0,0,168,1,1,0,false
0.9.0,3,1,0,0,0,1,0,1,45,3,13,0,false
0.9.0,3,1,0,0,0,1,1,0,45,1,4,0,false
0.9.0,11,3,3,0,0,1,0,4,0,1,6,1,false
0.9.6,4,2,2,0,0,0,0,0,168,1,2,0,false
0.9.6,109,71,15,0,1,10,2,2,185,2,2,0,false
0.9.0,3,1,0,0,0,0,0,0,0,1,6,0,false
0.9.6,8,2,0,0,1,1,0,1,185,2,2,1,true
0.9.0,3,1,0,0,0,1,0,2,45,2,7,0,false
0.9.0,3,1,0,0,0,0,0,0,0,2,6,0,false
0.9.6,22,5,8,0,1,2,1,10,168,1,1,4,false
0.9.6,3,1,0,0,0,0,0,0,168,3,5,0,false
0.9.6,3,1,1,0,0,0,3,0,185,2,4,0,false
0.9.0,3,1,0,0,0,1,0,0,0,1,4,0,false
0.9.6,3,1,0,0,0,1,0,0,168,2,2,0,false
0.9.6,14,3,2,0,2,1,1,2,94,2,2,1,false
0.9.6,4,1,0,0,0,1,1,0,185,3,8,0,false
0.9.6,2,1,0,0,0,0,0,0,185,1,1,0,false
0.9.6,3,1,0,0,0,1,0,0,185,2,2,0,true
0.9.6,3,1,0,0,0,1,0,0,185,2,5,0,false
0.9.0,3,1,1,0,0,0,0,0,45,3,10,0,false
0.9.0,16,5,4,0,0,1,29,6,45,3,8,6,false
0.9.0,17,5,6,0,0,1,1,0,37,2,6,2,false
0.9.6,3,1,0,1,0,1,1,0,185,2,2,0,false
0.9.6,3,1,0,0,0,1,0,0,62,1,2,0,false
0.9.0,22,14,4,0,0,0,0,9,45,2,7,2,false
0.9.0,9,1,7,0,0,0,9,0,45,3,8,0,false
0.9.0,1,1,0,0,0,0,0,0,45,1,3,0,false
0.9.6,57,22,4,0,0,1,1,3,185,1,1,58,false
0.9.6,3,1,0,0,0,1,0,0,185,2,4,0,false
0.9.6,14,2,5,0,0,1,4,0,185,2,2,5,false
0.9.0,3,1,0,0,0,1,3,2,45,2,7,0,false
0.9.0,1,1,0,0,0,0,0,0,45,3,8,0,false
0.9.0,3,1,0,0,0,1,0,0,37,2,6,0,false
0.9.6,21,5,3,0,3,0,1,2,168,1,1,3,false
0.9.6,8,2,0,0,1,1,0,2,185,2,2,1,true
0.9.6,3,1,0,0,0,0,0,0,185,1,1,0,false
0.9.6,3,1,0,0,0,1,0,3,185,2,3,0,true
0.9.0,3,2,0,0,0,0,0,1,0,2,9,0,false
0.9.6,3,1,0,0,0,1,2,0,94,1,1,0,false
0.9.6,1,1,0,0,0,0,2,0,185,2,2,0,true
0.9.6,16,5,0,0,1,2,1,5,185,4,19,0,true
0.9.6,22,10,8,0,0,2,0,0,185,1,1,1,false
0.9.0,11,1,1,0,0,0,0,14,37,3,6,7,false
0.9.0,3,1,0,0,0,1,1,0,45,1,4,0,false
0.9.0,4,2,0,0,0,1,3,1,45,2,5,0,false
0.9.6,8,4,4,0,0,3,0,2,185,1,3,0,true
0.9.0,3,1,0,0,0,0,0,0,45,3,13,0,false
0.9.6,1,1,0,0,0,0,3,0,185,2,2,0,true
0.9.0,3,1,0,0,0,1,0,1,37,2,4,0,false
0.9.6,4,1,1,0,0,0,0,1,168,2,2,2,false
0.9.0,4,2,0,0,0,1,0,2,0,1,8,0,false
0.9.6,2,1,0,0,0,0,0,0,70,2,5,0,false
0.9.0,7,2,4,0,0,0,1,1,37,2,6,0,false
0.9.0,42,7,14,3,1,0,0,6,45,2,7,6,false
0.9.6,3,1,0,0,0,0,0,0,185,1,1,0,false
0.9.0,4,2,0,1,0,1,0,2,0,1,8,0,false
0.9.6,3,1,0,0,0,0,0,0,185,1,1,0,false
0.9.0,4,1,0,0,0,0,0,0,37,1,2,0,false
0.9.6,4,1,0,0,0,1,0,0,185,1,1,0,false
0.9.0,3,1,0,0,0,1,0,0,45,2,5,0,false
0.9.0,3,2,0,0,0,1,7,0,45,3,11,0,false
0.9.0,4,1,1,0,0,1,0,2,37,3,6,0,false
0.9.6,8,4,2,1,0,1,2,0,168,2,2,0,false
0.9.0,3,1,0,0,0,1,0,0,37,2,2,0,false
0.9.0,23,6,11,4,0,2,2,4,45,3,10,4,false
0.9.0,3,1,0,0,0,1,0,1,45,2,4,1,false
0.9.6,4,1,0,0,0,0,0,1,94,1,1,0,false
0.9.6,8,2,2,0,0,1,1,1,185,2,5,0,false
0.9.6,6,3,1,0,0,2,1,1,168,2,3,0,false
0.9.0,68,28,26,2,1,1,0,12,45,2,6,5,false
0.9.0,3,1,0,0,0,0,0,3,45,2,6,0,false
0.9.0,4,4,0,0,0,2,1,1,45,2,8,1,false
0.9.6,1,1,0,0,0,0,1,0,168,1,1,0,true
0.9.0,9,1,0,0,1,1,0,4,45,3,11,0,false
0.9.0,5,1,2,0,0,0,24,0,45,3,13,0,false
0.9.0,3,1,0,0,0,0,0,0,45,3,7,0,false
0.9.0,44,15,9,2,3,0,0,4,45,2,7,6,false
0.9.0,12,4,3,0,1,1,0,11,45,2,7,3,false
0.9.0,17,7,7,0,0,2,1,2,37,1,2,2,false
0.9.0,3,1,0,0,0,1,16,0,45,3,11,0,false
0.9.0,3,1,1,0,0,0,1,0,0,1,4,0,false
0.9.0,4,2,1,0,0,1,1,1,45,1,4,1,false
0.9.6,10,4,2,0,0,1,50,4,185,4,13,0,true
0.9.6,3,1,0,0,0,0,0,0,168,3,5,0,false
0.9.6,3,1,0,0,0,1,0,0,185,1,1,0,false
0.9.0,4,1,0,0,0,0,0,1,45,4,9,0,false
0.9.0,7,2,3,0,0,0,0,1,0,1,5,0,false
0.9.0,20,10,3,0,0,1,1,5,45,3,11,1,false
0.9.6,3,2,0,0,0,1,2,1,185,2,5,0,false
0.9.6,71,54,0,0,0,45,1,0,185,1,1,3,false
0.9.0,3,2,1,0,0,0,1,1,45,2,4,0,false
0.9.0,11,6,3,0,0,3,18,1,45,2,8,1,false
0.9.0,3,1,0,0,0,0,0,0,45,3,11,0,false
0.9.0,6,2,2,0,0,0,0,2,0,1,4,0,false
0.9.6,9,2,1,0,1,0,0,0,94,1,1,0,false
0.9.0,3,1,0,0,0,1,0,0,0,1,7,0,false
0.9.6,3,1,0,0,0,0,0,0,185,2,5,0,false
0.9.0,18,13,0,0,0,4,1,2,0,1,8,0,false
0.9.0,3,1,0,0,0,1,1,1,45,3,13,0,false
0.9.0,3,1,0,0,0,1,0,0,45,2,4,0,false
0.9.6,3,1,0,0,0,1,0,0,168,1,1,0,false
0.9.0,14,3,2,0,1,1,0,3,45,3,7,0,false
0.9.0,3,1,0,0,0,1,0,0,0,1,7,0,false
0.9.0,3,1,0,0,0,1,4,2,0,1,5,0,false
0.9.6,3,1,0,0,0,1,0,0,185,2,2,0,false
0.9.0,3,1,0,0,0,1,0,0,0,2,7,0,false
0.9.6,3,1,0,0,0,1,0,0,185,3,9,0,false
0.9.6,3,1,0,0,0,1,0,2,185,2,2,0,false
0.9.6,3,1,0,0,0,1,2,0,185,2,2,0,true
0.9.6,3,2,0,0,0,0,1,1,185,2,4,0,false
0.9.6,3,1,0,0,0,1,0,1,185,3,10,0,false
0.9.0,3,1,0,0,0,1,0,0,45,3,11,0,false
0.9.6,1,1,0,0,0,0,0,0,185,2,5,0,false
0.9.0,3,1,0,0,0,1,0,0,45,3,6,0,false
0.9.0,4,2,1,0,0,1,4,1,45,2,4,1,false
0.9.6,10,5,2,0,1,0,0,0,168,2,5,0,true
0.9.6,8,3,4,0,0,0,2,0,168,1,1,0,false
0.9.0,1,1,0,0,0,0,0,0,45,1,4,0,false
0.9.6,1,1,0,0,0,0,0,0,185,1,1,0,false
0.9.0,1,1,0,0,0,0,2,0,45,2,5,0,false
0.9.0,3,2,0,0,0,1,3,1,45,3,5,0,false
0.9.6,31,6,6,0,0,1,0,13,168,1,4,11,false
0.9.6,1,1,0,0,0,0,0,0,185,2,5,0,false
0.9.6,12,1,0,0,0,0,1,20,185,1,1,1,true
0.9.0,28,15,4,0,0,1,1,1,37,2,8,1,false
0.9.0,15,5,2,0,0,1,0,2,37,2,3,0,false
0.9.0,3,1,1,0,0,0,0,0,37,2,2,0,false
0.9.6,4,2,2,0,0,0,3,0,168,1,1,0,false
0.9.0,2,1,0,0,0,0,0,0,37,2,2,0,false
0.9.6,8,4,3,0,0,1,1,1,168,1,1,2,false
0.9.0,1,1,0,0,0,0,0,0,45,3,6,0,false
0.9.0,3,1,0,0,0,1,0,0,0,1,6,0,false
0.9.0,3,1,0,0,0,1,0,0,45,2,4,0,false
0.9.0,1,1,0,0,0,0,2,0,45,1,4,0,false
0.9.0,3,1,0,0,0,1,4,1,45,3,13,1,false
0.9.0,2,1,0,0,0,0,0,0,45,3,6,0,false
0.9.0,4,2,1,0,0,0,0,0,37,1,2,0,false
0.9.6,3,1,0,0,0,1,0,0,33,3,5,0,false
0.9.6,26,6,2,0,2,1,0,3,185,1,1,3,false
0.9.0,3,1,0,0,0,1,9,0,45,3,11,0,false
0.9.6,3,1,1,0,0,0,1,0,185,2,2,0,false
0.9.6,3,1,0,0,0,0,0,1,168,1,1,0,false
0.9.0,16,6,2,0,0,1,4,6,45,3,7,1,false
0.9.6,3,1,0,0,0,0,0,0,168,3,5,0,false
0.9.6,1,1,0,0,0,0,1,0,168,1,1,0,false
0.9.0,14,4,5,0,0,0,1,2,37,1,2,5,false
0.9.0,3,1,0,0,0,1,0,0,0,1,4,0,false
0.9.6,3,1,0,0,0,1,0,0,185,2,3,0,true
0.9.6,3,1,1,0,0,0,0,0,185,1,3,0,true
0.9.0,3,3,0,0,0,1,12,0,45,2,8,0,false
0.9.0,4,2,0,0,0,0,0,1,45,1,4,0,false
0.9.6,3,2,0,0,0,1,1,0,185,2,5,0,false
0.9.0,3,1,0,0,0,1,0,1,37,2,3,0,false
0.9.6,21,7,2,0,1,1,0,2,33,3,5,1,false
0.9.0,4,2,0,0,0,2,0,5,45,2,7,0,false
0.9.6,3,2,0,0,0,1,0,0,185,1,1,0,false
0.9.0,4,2,0,0,0,2,1,0,45,3,11,0,false
0.9.6,3,1,0,0,0,1,0,0,168,1,1,0,false
0.9.6,3,1,0,0,0,1,0,0,168,1,1,0,false
0.9.6,6,2,1,1,0,1,0,2,185,2,2,0,true
0.9.6,3,2,0,0,0,1,2,1,168,2,7,0,false
0.9.6,5,1,1,0,0,1,2,2,185,3,9,0,false
0.9.6,3,1,1,0,0,0,1,0,185,1,2,0,false
0.9.6,3,1,0,0,0,1,0,0,185,2,2,0,false
0.9.6,3,1,0,0,0,0,0,0,185,2,5,0,false
0.9.6,16,10,6,0,0,4,1,0,185,4,19,1,true
0.9.0,1,1,0,0,0,0,0,0,45,3,8,0,false
0.9.6,3,1,0,0,0,1,0,0,185,2,4,0,false
0.9.6,3,1,0,0,0,1,2,2,94,4,7,0,false
0.9.6,3,1,0,0,0,1,0,0,185,1,1,0,false
0.9.6,1,1,0,0,0,0,1,0,168,1,2,0,false
0.9.0,3,1,0,0,0,1,0,0,37,2,3,0,false
0.9.0,3,1,0,0,0,0,0,0,0,1,6,0,false
0.9.6,4,1,1,0,0,1,0,0,83,2,2,0,false
0.9.0,6,1,1,0,0,1,5,2,45,3,8,0,false
0.9.6,5,2,2,1,0,1,0,0,168,1,1,0,false
0.9.0,15,8,3,0,0,1,5,13,45,3,8,2,false
0.9.6,12,3,0,0,1,1,2,1,185,1,2,3,false
0.9.0,3,1,0,0,0,1,0,0,0,1,4,0,false
0.9.6,6,1,0,0,0,0,0,2,185,1,1,0,true
0.9.0,3,3,0,0,0,0,2,1,45,2,7,1,false
0.9.0,3,1,0,0,0,0,0,0,37,2,4,0,false
0.9.6,2,1,0,0,0,0,0,0,185,3,5,0,false
0.9.0,5,1,1,0,0,1,0,2,37,1,2,1,false
0.9.6,3,1,0,0,0,1,3,0,185,2,4,0,false
0.9.0,9,2,5,0,0,1,0,7,45,2,5,2,false
0.9.0,29,17,10,0,0,1,0,0,37,1,2,2,false
0.9.6,16,1,3,0,0,0,1,0,185,2,2,14,false
0.9.6,1,1,0,0,0,0,3,0,185,2,2,0,true
0.9.0,3,1,0,0,0,1,0,2,45,2,6,0,false
0.9.0,3,1,0,0,0,1,0,0,45,1,3,0,false
0.9.6,6,1,0,0,0,0,0,0,168,2,2,0,false
0.9.0,4,1,0,0,0,0,0,1,0,1,8,0,false
0.9.0,32,8,8,1,0,1,1,0,0,1,4,0,false
0.9.6,7,3,2,0,0,1,5,2,185,4,13,1,true
0.9.6,3,1,0,0,0,0,0,1,168,1,1,0,false
0.9.0,3,1,0,0,0,1,0,1,0,1,5,0,false
0.9.0,17,9,8,0,0,2,2,8,45,2,6,0,false
0.9.6,1,1,0,0,0,0,0,0,185,2,5,0,false
0.9.6,8,3,3,0,0,1,0,0,168,3,5,1,false
0.9.0,13,4,1,0,1,0,2,2,37,3,9,0,false
0.9.0,3,1,0,0,0,1,0,0,0,1,8,0,false
0.9.6,4,1,0,0,0,1,0,0,185,2,2,0,true
0.9.6,3,1,0,0,0,0,0,0,185,2,3,0,true
0.9.0,10,6,2,0,0,6,3,7,45,2,8,1,false
0.9.0,4,1,2,0,0,0,0,0,45,2,7,0,false
0.9.0,3,1,0,0,0,0,0,0,45,2,4,0,false
0.9.6,6,4,3,0,0,0,2,2,185,4,19,0,true
0.9.6,1,1,0,0,0,0,0,0,185,2,5,0,false
0.9.0,16,8,2,0,1,0,4,7,45,3,13,0,false
0.9.0,1,1,0,0,0,0,12,0,45,1,4,0,false
0.9.0,3,1,0,0,0,0,0,0,0,1,5,0,false
0.9.0,4,3,0,0,0,2,1,1,45,3,8,0,false
0.9.0,8,2,3,0,0,0,0,1,37,1,2,0,false
0.9.6,15,2,0,0,0,0,0,1,168,3,5,1,false
0.9.6,7,3,2,0,0,2,3,2,94,1,1,0,false
0.9.6,2,1,0,0,0,0,0,0,185,1,1,0,false
0.9.0,3,1,0,0,0,1,0,0,45,2,4,0,false
0.9.6,3,2,0,0,0,0,0,1,168,1,1,0,false
0.9.0,4,1,0,0,0,0,0,5,45,2,7,0,false
0.9.0,3,1,0,0,0,1,1,1,45,3,5,0,false
0.9.0,5,3,2,0,0,0,3,1,45,2,8,1,false
0.9.6,14,3,2,0,0,0,0,1,168,2,6,1,false
0.9.6,3,1,0,0,0,1,4,0,168,3,3,0,false
0.9.6,3,1,0,0,0,0,1,0,185,1,1,1,false
0.9.6,6,1,1,0,0,1,3,2,168,2,2,1,false
0.9.6,31,19,6,0,0,1,1,7,168,2,4,5,false
0.9.6,3,1,1,0,0,0,0,0,94,1,2,0,false
0.9.6,3,2,0,0,0,1,2,0,185,4,7,0,false
0.9.0,1,1,0,0,0,0,2,0,45,2,5,0,false
0.9.0,1,1,0,0,0,0,2,0,45,3,8,0,false
0.9.0,3,1,0,0,0,0,0,0,45,1,3,0,false
0.9.0,1,1,0,0,0,0,0,0,45,3,8,0,false
0.9.6,3,1,0,0,0,1,0,0,168,3,5,0,false
0.9.0,3,1,0,0,0,1,2,0,45,2,6,0,false
0.9.0,2,1,0,0,0,0,1,0,45,2,6,0,false
0.9.6,6,1,2,0,0,0,1,6,168,1,3,0,false
0.9.0,3,1,0,0,0,0,1,0,37,2,5,0,false
0.9.6,5,4,1,0,0,1,2,0,94,2,2,0,false
0.9.6,5,3,3,0,0,0,1,0,185,4,13,0,true
0.9.0,3,1,0,0,0,1,0,0,45,2,6,0,false
0.9.0,3,1,0,0,0,0,5,0,37,3,9,0,false
0.9.6,3,1,0,0,0,1,0,0,185,1,1,0,false
0.9.6,1,1,0,0,0,0,0,0,185,2,5,0,false
0.9.0,3,1,0,0,0,1,0,1,45,2,7,0,false
0.9.0,3,1,0,0,0,1,3,0,0,1,5,0,false
0.9.0,3,1,0,0,0,1,0,0,37,2,3,0,false
0.9.6,21,6,4,0,0,1,0,5,168,2,6,3,false
0.9.6,3,1,0,0,0,0,0,0,185,2,4,0,false
0.9.6,4,1,0,0,0,0,0,1,94,1,1,0,false
0.9.0,22,6,2,0,0,0,0,1,37,2,3,3,false
0.9.6,3,1,0,0,0,1,0,0,185,2,2,0,true
0.9.0,6,2,2,0,0,1,0,1,45,3,6,0,false
0.9.0,5,3,0,0,0,0,0,1,45,2,6,0,false
0.9.6,3,1,0,0,0,1,1,3,185,3,10,0,false
0.9.0,3,1,0,0,0,1,0,0,45,3,13,0,false
0.9.0,8,8,4,1,0,1,2,2,45,2,6,1,false
0.9.0,3,1,0,0,0,1,0,0,0,1,4,0,false
0.9.6,3,2,0,0,0,0,0,1,94,2,2,0,false
0.9.0,3,1,0,0,0,0,0,0,0,1,6,0,false
0.9.0,3,1,0,0,0,1,1,0,0,1,4,0,false
0.9.0,1,1,0,0,0,0,2,0,45,2,5,0,false
0.9.6,1,1,0,0,0,0,3,0,185,1,2,0,false
0.9.6,3,1,0,0,0,1,0,1,185,2,3,0,true
0.9.0,7,1,0,0,0,0,1,6,45,3,8,0,false
0.9.6,3,1,0,0,0,1,0,0,94,2,2,0,false
0.9.6,3,1,0,0,0,1,0,0,168,2,5,0,false
0.9.6,3,1,0,0,0,1,0,0,168,1,1,0,false
0.9.6,10,5,2,0,0,4,6,8,185,2,5,7,false
0.9.6,1,1,0,0,0,0,1,0,168,2,2,0,false
0.9.6,8,2,2,0,0,0,2,4,185,4,14,0,true
0.9.6,3,2,0,0,0,1,2,1,185,3,9,0,false
0.9.0,18,5,5,1,0,0,1,1,37,1,2,4,false
0.9.0,7,2,2,0,0,1,1,1,45,1,3,2,false
0.9.6,16,6,2,0,1,5,3,7,94,2,2,4,false
0.9.6,8,1,0,0,1,1,0,1,94,1,1,0,false
0.9.6,3,1,0,0,0,1,0,0,185,2,2,0,true
0.9.0,4,2,0,0,0,0,0,2,37,2,5,0,false
0.9.0,20,8,6,0,0,3,0,3,37,2,2,1,false
0.9.0,6,3,2,0,0,2,1,0,45,1,4,0,false
0.9.0,3,1,0,0,0,1,0,1,45,3,6,0,false
0.9.0,3,2,0,0,0,1,0,0,37,1,2,0,false
0.9.6,14,8,0,0,0,2,1,0,185,1,1,0,false
0.9.0,4,4,0,0,0,0,0,1,0,1,4,0,false
0.9.6,4,1,1,0,0,0,0,0,168,1,1,0,false
0.9.6,5,1,1,0,0,1,1,3,168,1,1,0,false
0.9.6,8,2,0,0,1,1,0,2,185,2,2,1,true
0.9.0,9,5,3,0,0,3,1,6,37,3,9,2,false
0.9.6,3,1,0,0,0,1,0,0,168,2,5,0,true
0.9.0,3,1,0,0,0,0,0,0,0,1,4,0,false
0.9.0,3,2,0,0,0,0,15,0,0,1,7,0,false
0.9.6,1,1,0,0,0,0,0,0,185,2,5,0,false
0.9.6,4,2,0,0,0,1,0,1,185,3,10,0,false
0.9.6,5,3,1,0,0,1,0,1,168,2,2,1,false
0.9.0,6,2,2,0,0,0,0,2,0,1,5,0,false
0.9.0,4,2,0,0,0,2,0,0,37,2,5,0,false
0.9.0,7,3,1,0,0,0,1,3,45,2,6,0,false
0.9.0,20,10,4,0,0,0,1,1,37,2,4,0,false
0.9.0,3,1,1,0,0,0,0,0,45,1,5,0,false
0.9.0,3,1,0,0,0,1,0,0,0,1,4,0,false
0.9.6,1,1,0,0,0,0,3,0,185,1,2,0,false
0.9.0,7,3,0,0,0,2,0,2,45,3,8,0,false
0.9.0,3,1,0,0,0,1,0,0,0,1,4,0,false
0.9.0,4,1,0,0,0,0,0,1,0,1,8,0,false
0.9.0,4,2,1,0,0,0,4,1,45,3,10,0,false
0.9.0,3,1,0,0,0,1,0,0,45,3,7,0,false
0.9.6,2,1,0,0,0,0,0,0,185,3,5,0,false
0.9.6,3,1,0,0,0,1,0,1,185,2,2,0,true
0.9.6,3,1,0,0,0,1,3,1,94,4,7,0,false
0.9.6,6,4,0,0,0,3,2,0,185,2,3,0,true
0.9.6,2,1,0,0,0,0,0,0,168,1,1,0,false
0.9.0,2,1,0,0,0,0,0,0,0,2,7,0,false
0.9.0,14,4,5,0,0,0,1,2,37,1,2,5,false
0.9.0,3,1,0,0,0,0,0,0,45,2,5,0,false
0.9.6,3,1,0,0,0,1,0,1,185,3,10,0,false
0.9.0,5,1,1,0,0,1,0,0,45,2,4,0,false
0.9.0,3,1,0,0,0,0,3,0,45,2,7,1,false
0.9.0,4,1,1,0,0,0,0,1,45,2,7,0,false
0.9.0,3,1,0,0,0,0,0,0,45,3,7,0,false
0.9.6,5,1,1,0,0,1,4,2,185,3,9,0,false
0.9.6,3,1,0,0,0,0,0,1,185,2,5,0,false
0.9.6,4,1,0,0,0,0,1,0,94,1,2,0,false
0.9.0,3,1,1,0,0,0,0,0,37,2,4,0,false
0.9.6,4,2,0,0,0,0,0,0,168,1,1,0,false
0.9.0,3,1,0,0,0,1,0,0,0,2,9,0,false
0.9.0,1,1,0,0,0,0,1,0,45,3,8,0,false
0.9.6,3,1,0,0,0,1,2,1,168,2,3,0,false
0.9.6,3,1,0,0,0,1,0,0,185,2,4,0,false
0.9.0,19,8,7,1,0,0,1,4,37,2,3,4,false
0.9.0,3,1,0,0,0,1,0,0,0,1,6,0,false
0.9.6,2,1,0,0,0,0,1,0,94,1,1,0,false
0.9.6,3,1,0,0,0,1,0,0,185,2,3,0,true
0.9.0,1,1,0,0,0,0,1,0,45,1,4,0,false
0.9.6,3,1,0,0,0,1,3,0,185,4,14,0,true
0.9.0,10,5,2,0,0,2,2,0,37,2,3,3,false
0.9.6,11,5,2,0,0,2,7,1,185,2,5,0,false
0.9.0,3,1,0,0,0,1,0,4,45,2,6,0,false
0.9.0,1,1,0,0,0,0,0,0,45,3,8,0,false
0.9.6,3,1,0,0,0,1,0,1,168,3,4,0,false
0.9.6,4,1,2,0,0,0,0,0,185,4,13,0,true
0.9.6,3,1,0,0,0,1,3,0,185,2,2,0,true
0.9.0,3,1,0,0,0,1,0,0,45,3,13,0,false
0.9.6,3,4,0,1,0,1,3,0,168,1,1,0,true
0.9.0,1,1,0,0,0,0,1,0,45,1,4,0,false
0.9.0,6,4,0,0,0,4,2,0,45,2,6,3,false
0.9.0,3,1,0,0,0,1,0,1,37,3,6,0,false
0.9.0,5,3,3,0,0,0,8,0,45,3,8,0,false
0.9.0,13,5,6,0,0,2,3,4,45,3,8,0,false
0.9.6,8,1,4,0,0,0,0,1,168,2,2,0,false
0.9.6,3,1,0,0,0,1,0,0,185,4,19,0,true
0.9.0,3,1,0,0,0,0,0,0,0,1,4,0,false
0.9.6,5,1,1,0,0,1,0,2,185,4,16,0,false
0.9.6,3,1,0,0,0,1,0,0,185,2,2,0,false
0.9.0,3,1,0,0,0,1,0,0,0,1,4,0,false
0.9.6,3,1,0,0,0,0,0,0,185,2,5,0,false
0.9.6,1,1,0,0,0,0,1,0,185,1,2,0,false
0.9.6,3,1,0,0,0,1,0,1,168,2,3,0,false
0.9.6,3,1,0,0,0,1,0,1,94,1,1,0,false
0.9.0,8,2,0,0,1,2,1,0,37,2,3,2,false
0.9.0,3,1,0,0,0,1,4,0,45,3,10,0,false
0.9.0,3,1,1,0,0,0,0,0,37,2,3,0,false
0.9.0,3,1,0,0,0,1,0,0,37,2,3,0,false
0.9.6,3,1,0,0,0,1,0,1,168,2,2,1,false
0.9.6,3,1,0,0,0,0,0,0,168,3,5,0,false
0.9.6,1,1,0,0,0,0,1,0,168,1,1,0,true
0.9.6,17,7,3,0,0,2,1,7,185,4,19,0,true
0.9.6,3,2,0,0,0,1,2,0,185,4,7,0,false
0.9.6,1,1,0,0,0,0,0,0,185,2,5,0,false
0.9.6,4,1,0,0,0,1,0,0,185,1,1,0,false
0.9.0,3,1,0,0,0,1,0,0,45,2,8,0,false
0.9.6,4,2,0,0,0,1,0,0,94,1,1,0,false
0.9.0,8,5,3,0,0,1,13,3,45,3,8,2,false
0.9.6,3,1,0,0,0,1,0,0,185,1,1,0,false
0.9.6,14,11,5,3,0,5,2,0,94,4,7,7,false
0.9.0,7,1,5,0,0,0,1,0,45,3,6,0,false
0.9.6,3,1,0,0,0,1,0,0,185,1,1,0,false
0.9.6,3,1,0,0,0,1,0,0,94,1,1,0,false
0.9.6,4,1,1,0,0,0,0,1,168,2,2,2,false
0.9.6,6,3,1,0,0,3,0,0,185,4,16,0,false
0.9.6,10,2,1,0,1,0,1,2,185,4,19,0,true
0.9.6,3,1,1,0,0,0,0,0,168,1,2,0,false
0.9.0,3,1,0,0,0,0,0,0,0,1,6,0,false
0.9.0,3,2,0,0,0,1,1,0,0,1,5,1,false
0.9.6,3,1,0,0,0,1,0,3,185,2,3,0,true
0.9.0,1,1,0,0,0,0,0,0,45,3,8,0,false
0.9.0,3,1,0,0,0,1,0,5,45,2,7,1,false
0.9.0,4,1,1,0,0,0,1,1,45,3,11,0,false
0.9.6,3,1,0,0,0,1,0,0,185,4,14,0,true
0.9.6,3,1,1,0,0,0,0,0,94,1,2,0,false
0.9.0,3,2,0,0,0,1,0,0,37,2,6,0,false
0.9.6,3,1,0,0,0,1,2,0,185,2,5,0,false
0.9.0,10,5,0,0,0,0,2,2,45,2,6,0,false
0.9.6,3,1,1,0,0,0,0,0,94,2,2,0,false
0.9.0,3,2,0,1,0,0,22,2,0,1,8,0,false
0.9.0,6,3,1,0,0,0,0,2,45,2,8,0,false
0.9.0,3,1,0,0,0,0,0,0,45,2,5,0,false
0.9.6,6,4,2,0,0,0,2,2,185,1,1,0,false
0.9.0,3,1,0,0,0,1,1,1,45,1,4,0,false
0.9.6,4,1,0,0,0,0,0,2,185,3,10,0,false
0.9.6,3,1,0,0,0,1,0,0,185,1,1,0,false
0.9.6,4,2,0,0,0,1,3,0,70,2,10,0,false
0.9.0,3,1,0,0,0,0,0,0,0,1,5,0,false
0.9.0,3,1,0,0,0,0,0,0,0,1,4,0,false
0.9.6,3,2,0,0,0,0,0,1,168,2,5,0,true
0.9.6,3,1,0,0,0,0,0,1,168,2,3,0,false
0.9.0,26,5,14,2,0,1,1,4,0,2,13,0,false
0.9.6,5,2,2,0,0,0,0,3,185,4,16,0,false
0.9.6,3,1,0,0,0,0,0,1,168,2,3,0,false
0.9.0,6,8,1,0,0,3,0,0,45,2,4,0,false
0.9.6,1,1,0,0,0,0,1,0,185,2,2,0,true
0.9.0,3,4,0,0,0,1,3,0,45,3,11,0,false
0.9.0,3,1,0,0,0,1,0,1,45,2,7,0,false
0.9.0,3,1,0,0,0,0,11,1,45,2,6,0,false
0.9.6,18,13,0,0,0,4,1,2,94,1,2,0,false
0.9.6,5,4,1,0,0,2,0,0,168,2,7,0,false
0.9.0,9,3,2,0,0,0,0,4,37,2,5,0,false
0.9.6,1,1,0,0,0,0,0,0,185,2,5,0,false
0.9.6,5,2,1,0,0,1,2,0,185,1,2,0,true
0.9.6,2,1,0,0,0,0,0,0,168,1,1,0,false
0.9.0,1,1,0,0,0,0,0,0,45,3,8,0,false
0.9.0,5,1,1,0,0,1,0,2,0,1,7,0,false
0.9.6,4,2,1,0,0,0,6,1,168,1,4,2,false
0.9.6,3,1,0,0,0,1,0,0,185,1,2,0,false
0.9.6,42,26,3,0,0,0,1,7,185,2,5,4,false
0.9.0,16,5,1,0,2,0,0,3,37,3,9,1,false
0.9.0,3,1,0,0,0,1,0,0,45,3,7,0,false
0.9.0,1,1,0,0,0,0,0,0,45,3,8,0,false
0.9.6,3,1,1,0,0,0,0,0,168,1,1,0,false
0.9.0,9,3,0,0,1,1,0,2,45,2,5,1,false
0.9.6,1,1,0,0,0,0,0,0,168,3,5,0,false
0.9.0,45,14,16,4,1,2,1,1,45,2,7,1,false
0.9.0,3,1,0,0,0,1,0,0,45,3,11,0,false
0.9.6,3,1,0,0,0,1,0,0,168,1,3,0,false
0.9.0,3,1,0,0,0,1,4,0,45,2,8,0,false
0.9.6,3,1,0,0,0,1,0,0,168,1,1,0,false
0.9.6,4,3,0,0,0,2,0,0,168,3,5,0,false
0.9.0,7,1,0,0,0,0,1,5,37,1,2,0,false
0.9.6,3,1,0,0,0,0,0,0,168,3,5,0,false
0.9.6,5,5,0,1,0,3,3,0,94,4,7,0,false
0.9.6,71,17,14,0,1,6,2,24,168,1,3,2,false
0.9.0,7,1,1,0,0,1,0,3,37,2,4,0,false
0.9.6,1,1,0,0,0,0,0,0,185,2,5,0,false
0.9.6,4,1,0,0,0,0,1,2,185,3,10,0,false
0.9.0,3,1,0,0,0,1,50,0,45,3,13,0,false
0.9.0,2,1,0,0,0,0,0,0,45,1,4,0,false
0.9.6,20,10,5,0,0,1,1,7,185,2,5,3,false
0.9.6,3,1,0,0,0,1,0,0,185,3,7,0,false
0.9.6,6,5,0,0,0,4,0,0,168,1,1,0,false
0.9.6,3,1,0,0,0,1,2,0,185,4,14,0,true
0.9.6,3,1,0,0,0,0,0,0,185,1,1,0,false
0.9.0,3,1,0,0,0,1,0,0,37,2,2,0,false
0.9.0,3,1,0,0,0,1,10,0,45,3,10,0,false
0.9.0,3,6,0,0,0,0,8,1,45,3,11,0,false
0.9.6,20,8,6,1,0,1,2,1,168,1,2,0,false
0.9.0,3,1,0,0,0,1,0,1,45,3,13,0,false
0.9.0,25,1,7,0,0,0,1,0,45,1,3,19,false
0.9.6,9,2,0,0,1,1,0,6,185,2,2,0,true
0.9.0,3,1,0,0,0,0,0,0,0,1,6,0,false
0.9.0,3,1,0,0,0,1,0,1,37,3,6,0,false
0.9.0,3,1,0,0,0,1,0,0,45,1,4,0,false
0.9.0,4,1,0,0,0,1,0,2,45,2,6,0,false
0.9.0,3,1,0,0,0,1,0,0,37,2,6,0,false
0.9.0,3,1,0,0,0,1,174,0,45,3,8,0,false
0.9.0,4,1,0,0,0,0,1,1,37,2,4,0,false
0.9.0,4,4,0,0,0,2,0,0,37,2,6,0,false
0.9.6,3,1,0,0,0,1,7,0,185,2,2,0,false
0.9.0,3,1,0,0,0,0,0,1,37,2,4,0,false
0.9.6,2,1,0,0,0,0,0,0,168,1,1,0,false
0.9.6,3,1,0,0,0,0,30,1,168,1,1,0,false
0.9.0,1,1,0,0,0,0,1,0,45,2,7,0,false
0.9.0,3,1,0,0,0,1,1,1,37,2,4,0,false
0.9.6,11,4,2,0,1,1,1,0,168,3,6,2,false
0.9.6,19,2,2,1,0,1,1,3,185,3,8,5,false
0.9.6,4,4,0,0,0,0,1,0,94,2,2,0,false
0.9.6,3,1,0,0,0,1,0,2,168,3,4,0,false
0.9.6,11,3,4,0,0,1,3,5,168,2,7,0,false
0.9.6,9,4,4,0,0,1,0,0,168,1,1,2,false
0.9.6,3,1,0,0,0,1,0,0,185,1,1,1,false
0.9.0,4,2,2,0,0,0,0,8,37,2,5,0,false
0.9.6,5,3,0,0,0,3,2,0,168,2,2,1,false
0.9.6,8,4,3,0,0,2,5,5,168,1,2,4,false
0.9.0,3,1,0,0,0,0,0,0,0,1,4,0,false
0.9.0,22,9,7,0,1,2,3,3,0,2,13,3,false
0.9.6,6,4,0,0,0,0,0,1,185,3,5,0,true
0.9.6,13,4,4,2,1,0,0,1,185,2,2,0,true
0.9.0,3,1,0,0,0,1,25,1,45,3,13,0,false
0.9.0,3,1,0,0,0,1,2,0,45,1,4,0,false
0.9.0,3,1,0,0,0,1,1,0,37,2,5,0,false
0.9.6,3,1,0,0,0,1,0,1,168,2,3,0,false
0.9.0,29,10,6,0,3,1,0,3,37,2,3,0,false
0.9.6,5,5,0,0,0,0,1,4,185,2,5,0,false
0.9.6,3,1,0,0,0,0,0,0,94,3,4,0,false
0.9.0,5,3,0,0,0,3,3,0,45,2,7,0,false
0.9.0,5,2,2,0,0,1,1,0,37,2,3,0,false
0.9.6,3,1,0,0,0,1,0,0,168,2,2,0,false
0.9.6,3,1,0,0,0,0,0,0,185,2,4,0,false
0.9.0,24,12,3,0,1,8,1,3,45,2,7,4,false
0.9.6,22,6,2,0,2,1,2,3,168,3,6,2,false
0.9.0,3,1,0,0,0,0,0,0,37,1,2,0,false
0.9.0,3,1,0,0,0,1,13,1,45,3,8,0,false
0.9.0,3,1,0,0,0,1,0,0,45,1,4,0,false
0.9.0,8,2,0,1,1,1,1,1,37,2,4,2,false
0.9.0,3,1,1,0,0,0,0,0,37,2,2,0,false
0.9.6,3,1,0,0,0,1,0,0,168,3,5,0,false
0.9.0,40,11,9,0,3,1,2,4,45,3,11,5,false
0.9.6,6,3,2,0,0,1,0,2,94,1,1,0,false
0.9.0,3,2,0,0,0,1,1,0,37,1,2,0,false
0.9.0,9,5,2,0,0,3,2,0,37,2,6,1,false
0.9.0,35,10,7,1,0,2,1,1,45,2,6,9,false
0.9.0,1,1,0,0,0,0,1,0,45,3,6,0,false
0.9.0,5,3,0,0,0,3,3,3,45,3,8,1,false
0.9.0,1,1,0,0,0,0,0,0,45,2,5,0,false
0.9.0,9,2,0,0,1,1,1,2,45,3,7,1,false
0.9.0,23,5,3,0,0,1,1,3,0,1,6,1,false
0.9.0,3,2,0,0,0,1,0,0,0,1,5,1,false
0.9.6,4,2,2,0,0,0,0,0,168,2,2,0,false
0.9.0,4,1,0,0,0,0,1,2,45,3,13,0,false
0.9.6,8,2,0,0,1,1,0,2,185,2,2,1,true
0.9.0,4,2,0,0,0,0,0,2,37,2,2,0,false
0.9.6,3,1,0,0,0,1,3,0,168,1,2,1,false
0.9.6,4,1,0,0,0,0,0,2,185,3,10,0,false
0.9.6,10,3,2,0,0,0,0,2,94,2,2,3,false
0.9.6,9,5,6,0,0,0,0,1,94,1,1,2,false
0.9.0,3,1,0,0,0,1,0,0,45,1,4,0,false
0.9.0,24,5,0,0,1,0,3,12,45,3,11,0,false
0.9.0,6,6,1,0,0,1,1,4,45,2,6,4,false
0.9.0,4,4,0,0,0,0,1,5,45,2,5,0,false
0.9.6,17,1,6,0,1,1,1,17,185,3,9,0,false
0.9.6,3,1,0,0,0,0,0,0,168,3,5,0,false
0.9.6,3,1,0,0,0,1,0,0,185,4,19,0,true
0.9.6,3,1,0,0,0,1,1,0,185,2,5,0,false
0.9.0,3,1,0,0,0,1,2,0,0,1,5,0,false
0.9.6,1,1,0,0,0,0,0,0,185,2,5,0,false
0.9.6,4,3,0,0,0,2,1,2,185,2,2,2,true
0.9.6,4,1,0,0,0,0,0,2,185,3,10,0,false
0.9.6,3,1,0,0,0,1,0,1,185,2,2,0,true
0.9.6,4,1,1,0,0,0,1,1,185,4,19,0,true
0.9.6,11,2,3,0,1,0,0,3,168,2,3,0,false
0.9.6,3,1,0,0,0,1,20,0,185,2,5,0,false
0.9.0,5,2,2,1,0,1,0,0,37,2,3,0,false
0.9.0,8,1,0,0,1,0,0,4,0,1,8,0,false
0.9.0,3,1,0,0,0,1,2,0,37,2,3,0,false
0.9.0,3,2,0,0,0,1,1,0,37,2,6,0,false
0.9.6,28,7,5,0,2,0,0,3,94,1,1,1,false
0.9.6,17,8,5,0,0,1,1,1,168,1,1,0,true
0.9.0,1,1,0,0,0,0,1,0,45,1,4,0,false
0.9.0,3,3,0,0,0,0,5,1,45,3,11,0,false
0.9.0,3,1,0,0,0,1,0,0,45,3,11,0,false
0.9.0,3,1,0,0,0,1,0,0,45,1,4,0,false
0.9.6,5,2,4,0,0,0,0,1,168,1,1,0,false
0.9.0,1,1,0,0,0,0,0,0,45,3,8,0,false
0.9.0,4,1,0,0,0,0,0,2,37,3,6,0,false
0.9.0,11,3,2,0,0,0,0,4,37,2,3,0,false
0.9.0,14,8,3,1,0,2,0,0,37,2,6,0,false
0.9.0,3,1,1,0,0,0,0,0,37,2,2,0,false
0.9.0,3,1,0,0,0,1,0,0,37,3,9,0,false
0.9.6,4,1,1,0,0,0,0,0,168,1,1,0,false
0.9.0,3,1,0,0,0,1,0,0,45,2,4,0,false
0.9.0,11,5,7,0,0,0,1,9,45,2,8,2,false
0.9.0,3,3,0,0,0,1,0,0,45,1,3,0,false
0.9.0,3,1,0,0,0,1,0,0,45,1,3,0,false
0.9.6,4,2,1,0,0,1,10,2,185,4,14,1,true
0.9.6,3,1,1,0,0,0,0,2,168,2,5,0,true
0.9.0,25,5,3,0,1,0,4,14,45,3,11,2,false
0.9.6,1,1,0,0,0,0,0,0,185,2,5,0,false
0.9.6,6,1,1,0,0,1,4,2,185,4,13,0,true
0.9.0,7,2,2,0,0,0,2,0,37,2,2,2,false
0.9.6,3,1,0,0,0,1,0,0,168,3,5,0,false
0.9.6,4,1,1,0,0,1,0,2,168,1,4,3,false
0.9.6,8,1,0,0,1,1,0,1,94,1,1,0,false
0.9.6,4,1,0,0,0,0,0,1,185,3,10,0,false
0.9.0,4,3,0,0,0,0,0,2,0,2,9,0,false
0.9.6,3,1,0,0,0,1,0,0,168,1,1,0,false
0.9.6,3,1,0,0,0,1,0,1,185,2,2,0,true
0.9.6,8,2,2,0,0,0,0,1,168,2,2,0,false
0.9.6,11,1,3,0,1,0,0,1,185,2,5,0,false
0.9.0,1,1,0,0,0,0,6,0,45,3,6,0,false
0.9.6,10,9,2,0,0,0,3,2,185,4,14,0,true
0.9.0,12,7,4,0,0,4,0,1,37,1,2,4,false
0.9.6,3,1,0,0,0,1,1,0,94,1,2,0,false
0.9.6,3,1,0,0,0,1,0,0,185,1,2,0,false
0.9.6,4,1,0,0,0,1,0,0,185,1,1,0,false
0.9.0,4,1,0,0,0,0,0,2,45,3,13,0,false
0.9.0,3,2,0,0,0,0,2,1,0,1,7,0,false
0.9.0,5,1,1,0,0,1,1,3,37,2,2,0,false
0.9.6,3,1,0,0,0,1,0,1,185,4,16,0,false
0.9.6,1,1,0,0,0,0,0,0,185,2,5,0,false
0.9.6,26,10,8,0,0,2,2,30,185,3,6,9,true
0.9.6,3,1,0,0,0,1,0,1,185,3,10,0,true
0.9.0,3,1,0,0,0,1,0,0,45,3,7,0,false
0.9.0,3,1,0,0,0,1,1,0,37,2,3,0,false
0.9.6,12,2,3,0,1,1,1,0,185,1,1,2,false
0.9.6,1,1,0,0,0,0,7,0,94,1,1,0,false
0.9.6,25,6,9,0,0,1,2,2,185,2,8,3,false
0.9.0,10,2,1,0,1,1,14,0,0,1,7,0,false
0.9.6,3,1,0,0,0,1,0,0,185,1,3,0,false
0.9.6,3,2,0,0,0,1,0,1,185,2,2,0,true
0.9.0,10,3,1,3,1,0,0,2,45,2,7,4,false
0.9.6,1,1,0,0,0,0,0,0,185,2,5,0,false
0.9.6,7,4,3,0,0,2,0,0,168,1,2,0,false
0.9.6,3,1,0,0,0,1,1,0,185,2,5,2,false
0.9.0,1,1,0,0,0,0,2,0,45,1,4,0,false
0.9.6,3,1,0,0,0,1,0,1,185,3,10,0,false
0.9.0,3,1,0,0,0,1,0,0,37,2,5,0,false
0.9.6,3,1,0,0,0,1,0,0,70,2,5,0,false
0.9.0,3,1,1,0,0,0,3,0,45,3,10,0,false
0.9.6,4,1,0,0,0,1,0,2,185,2,2,0,true
0.9.0,12,7,4,0,0,3,2,0,37,3,6,0,false
0.9.0,3,1,0,0,0,1,1,0,45,2,8,1,false
0.9.0,3,1,0,0,0,1,0,0,0,1,4,0,false
0.9.6,8,1,2,0,0,1,0,3,168,2,3,6,false
0.9.0,3,1,0,0,0,1,1,0,45,1,4,0,false
0.9.0,11,2,1,0,1,0,0,3,45,2,6,0,false
0.9.0,3,1,0,0,0,1,0,0,0,1,4,0,false
0.9.6,4,1,0,0,0,0,0,1,168,1,1,2,false
0.9.0,9,7,2,0,0,2,4,2,37,3,6,0,false
0.9.0,3,1,0,0,0,1,0,0,45,2,5,0,false
0.9.6,3,1,0,0,0,0,0,1,168,1,1,0,false
0.9.0,8,1,0,0,1,1,0,4,0,1,8,0,false
0.9.0,3,1,0,0,0,1,0,0,45,2,5,0,false
0.9.6,4,1,0,0,0,0,1,2,185,3,10,0,false
0.9.0,4,2,0,0,0,2,44,0,45,2,6,0,false
0.9.0,4,1,1,0,0,1,1,1,45,2,4,0,false
0.9.0,3,1,0,0,0,1,0,0,37,2,3,0,false
0.9.6,19,3,4,1,2,0,0,1,94,1,1,0,false
0.9.0,3,1,0,0,0,1,0,2,37,2,4,0,false
0.9.0,1,1,0,0,0,0,3,0,45,2,5,0,false
0.9.0,3,1,0,0,0,0,0,0,45,1,4,0,false
0.9.6,5,3,0,0,0,0,0,1,185,2,3,0,false
0.9.0,14,7,1,0,1,5,0,1,37,2,3,5,false
0.9.6,4,1,0,0,0,0,0,2,168,3,4,0,false
0.9.6,3,1,0,0,0,1,0,2,185,2,5,0,false
0.9.6,3,1,1,0,0,0,0,0,168,2,2,0,false
0.9.0,3,1,0,0,0,1,0,0,0,1,4,0,false
0.9.6,16,9,3,0,0,1,2,4,185,4,16,3,false
0.9.0,3,1,0,0,0,0,0,3,45,2,7,0,false
0.9.0,18,4,2,0,1,2,5,2,45,2,5,1,false
0.9.6,3,1,0,0,0,1,0,1,185,1,1,0,false
0.9.0,5,2,1,0,0,1,3,1,37,1,2,2,false
0.9.6,7,3,4,0,0,1,0,0,185,4,14,0,true
0.9.0,8,6,4,0,0,1,3,3,45,3,13,0,false
0.9.6,3,1,0,0,0,0,0,0,168,3,5,0,false
0.9.0,7,4,4,0,0,1,1,4,37,1,2,0,false
0.9.0,9,2,1,0,1,1,1,3,45,2,5,1,false
0.9.0,3,1,0,0,0,1,0,1,45,3,13,0,false
0.9.0,3,1,0,0,0,1,0,0,37,3,6,0,false
0.9.0,3,1,0,0,0,0,0,0,0,1,6,0,false
0.9.0,5,2,0,0,0,2,0,3,45,3,11,0,false
0.9.6,14,5,5,0,0,2,1,0,185,1,1,0,false
0.9.0,11,4,3,0,0,4,0,1,37,2,3,1,false
0.9.0,18,7,1,0,1,2,1,6,45,3,11,2,false
0.9.6,3,1,0,0,0,1,0,1,168,2,3,0,false
0.9.6,3,1,0,0,0,1,0,0,185,1,1,0,false
0.9.0,4,2,1,0,0,0,0,0,45,2,6,0,false
0.9.6,13,3,1,0,1,1,0,3,185,2,4,0,false
0.9.0,3,1,0,0,0,0,3,1,37,2,3,0,false
0.9.6,5,1,2,0,0,0,0,0,185,4,16,0,false
0.9.6,1,1,0,0,0,0,0,0,185,2,4,0,false
0.9.6,3,1,0,0,0,1,1,2,185,2,3,1,true
0.9.6,1,1,0,0,0,0,3,0,185,2,2,0,true
0.9.0,3,1,0,0,0,1,0,0,0,1,4,0,false
0.9.0,1,1,0,0,0,0,2,0,45,1,4,0,false
0.9.0,3,1,0,0,0,1,0,0,0,1,4,0,false
0.9.0,3,2,0,0,0,0,2,1,0,1,6,0,false
0.9.6,3,1,1,0,0,0,0,0,185,2,3,0,true
0.9.6,3,1,0,0,0,1,0,0,185,2,5,0,false
0.9.6,3,1,0,0,0,0,0,0,185,2,4,0,false
0.9.0,3,1,0,0,0,1,0,1,37,2,5,0,false
0.9.0,9,1,0,0,1,1,0,2,37,3,9,0,false
0.9.6,13,4,1,0,1,0,5,0,185,4,19,3,true
0.9.6,3,1,0,0,0,1,0,0,185,2,4,0,false
0.9.0,4,4,0,0,0,1,1,0,45,2,6,0,false
0.9.0,4,2,0,0,0,2,2,2,45,2,5,1,false
0.9.0,3,1,0,0,0,1,0,1,45,3,13,0,false
0.9.6,2,1,0,0,0,0,0,0,168,3,6,0,false
0.9.0,1,1,0,0,0,0,1,0,45,3,8,0,false
0.9.6,3,1,0,0,0,1,0,0,168,1,2,0,false
0.9.0,3,1,1,0,0,0,1,0,45,3,10,0,false
0.9.0,1,1,0,0,0,0,0,0,45,3,8,0,false
0.9.0,3,1,0,0,0,1,0,1,45,1,4,0,false
0.9.0,3,1,0,0,0,1,0,0,0,1,4,0,false
0.9.6,3,1,0,0,0,1,0,0,185,1,1,0,false
0.9.6,9,4,3,0,0,0,1,3,168,2,7,0,false
0.9.6,3,1,0,0,0,0,0,0,185,2,4,0,false
0.9.6,3,1,0,0,0,1,4,0,185,2,4,0,false
0.9.6,3,1,1,0,0,0,0,0,185,2,5,0,false
0.9.6,4,1,0,0,0,1,0,0,83,2,2,0,false
0.9.0,3,1,0,0,0,0,0,0,0,1,4,0,false
0.9.6,5,1,2,0,0,0,0,0,168,2,2,0,false
0.9.0,14,8,3,0,0,2,1,5,45,2,6,1,false
0.9.6,13,7,0,0,1,2,2,0,185,4,16,1,false
0.9.0,3,1,0,0,0,1,0,0,0,1,4,0,false
0.9.0,6,4,1,0,0,2,0,0,37,2,3,0,false
0.9.0,6,3,1,0,0,2,0,1,0,1,5,0,false
0.9.0,3,1,0,0,0,0,0,0,37,2,4,0,false
0.9.6,3,1,0,0,0,1,0,1,185,2,3,0,true
0.9.0,3,1,0,0,0,0,0,0,0,1,6,0,false
0.9.0,3,1,0,0,0,1,4,1,45,3,10,0,false
0.9.6,3,1,0,0,0,1,0,0,185,1,3,0,true
0.9.6,7,4,1,0,0,0,0,0,168,1,1,4,false
0.9.6,33,16,10,0,0,0,1,3,168,2,4,1,false
0.9.0,5,2,3,0,0,0,17,0,45,3,10,0,false
0.9.6,4,1,0,0,0,0,0,2,185,3,10,0,false
0.9.0,3,1,0,0,0,1,0,0,0,1,7,0,false
0.9.0,3,1,0,0,0,0,0,0,45,2,5,0,false
0.9.0,4,1,0,0,0,0,0,2,45,3,13,0,false
0.9.6,7,5,1,1,0,0,0,1,168,3,3,0,false
0.9.6,3,1,1,0,0,0,0,0,94,2,2,0,false
0.9.0,3,1,0,0,0,1,0,0,37,2,4,0,false
0.9.0,3,1,0,0,0,1,0,0,37,2,3,0,false
0.9.0,3,1,0,0,0,0,1,1,37,2,4,0,false
0.9.6,12,7,4,0,0,0,0,3,168,2,2,1,false
0.9.6,1,1,0,0,0,0,0,0,185,2,5,0,false
0.9.6,9,3,2,0,0,3,1,6,185,2,2,0,true
0.9.6,3,1,1,0,0,0,0,0,168,2,2,0,false
0.9.6,10,5,4,0,0,2,4,2,168,2,6,1,false
0.9.6,3,1,1,0,0,0,0,0,185,3,6,0,true
0.9.0,3,1,1,0,0,0,0,0,37,2,2,0,false
0.9.6,8,2,0,0,1,1,1,1,185,3,10,1,true
0.9.6,3,2,0,0,0,1,12,0,168,2,7,0,false
0.9.0,8,3,3,0,0,1,3,2,37,3,6,2,false
0.9.6,11,8,2,0,0,2,4,0,185,3,4,3,false
0.9.6,3,1,0,0,0,1,0,0,94,2,2,0,false
0.9.0,3,1,1,0,0,0,0,0,45,2,5,0,false
0.9.6,4,1,0,0,0,1,0,0,168,2,2,0,false
0.9.6,3,1,0,0,0,0,0,0,185,4,14,0,true
0.9.0,9,3,0,0,1,1,0,2,45,2,5,1,false
0.9.0,4,1,0,0,0,0,0,2,45,3,13,0,false
0.9.0,4,3,0,0,0,2,0,2,37,2,6,0,false
0.9.0,3,1,0,0,0,1,1,1,45,3,13,0,false
0.9.0,3,1,1,0,0,0,0,0,0,1,4,0,false
0.9.0,5,1,0,0,0,0,1,0,45,2,7,0,false
0.9.6,8,2,0,0,1,1,0,2,185,2,2,1,true
0.9.6,14,3,4,0,0,1,1,3,185,1,1,2,false
0.9.0,5,2,2,0,0,1,0,0,37,2,4,1,false
0.9.6,12,5,3,0,0,0,3,1,168,2,2,3,false
0.9.0,3,1,0,0,0,1,0,0,45,2,5,0,false
0.9.6,1,1,0,0,0,0,0,0,185,2,5,0,false
0.9.0,3,1,1,0,0,0,0,0,2,1,1,0,false
0.9.6,3,1,1,0,0,0,1,0,185,2,2,0,false
0.9.6,6,2,2,0,0,0,0,2,94,1,1,0,false
0.9.6,1,1,0,0,0,0,2,0,185,2,2,0,true
0.9.6,3,1,0,0,0,1,0,0,185,1,1,0,false
0.9.6,3,1,0,0,0,1,2,0,185,2,2,0,false
0.9.6,4,1,1,0,0,0,0,1,168,2,2,2,false
0.9.6,6,3,2,0,0,1,0,2,94,1,1,0,false
0.9.0,3,1,0,0,0,1,0,0,37,3,6,0,false
0.9.0,3,1,0,0,0,1,0,0,0,1,4,0,false
0.9.6,4,1,0,0,0,1,0,0,185,1,2,0,false
0.9.6,3,1,0,0,0,1,4,0,185,4,19,0,true
0.9.0,3,2,0,0,0,1,0,2,37,2,3,1,false
0.9.6,5,1,0,0,0,0,0,0,185,1,1,0,false
0.9.6,3,1,1,0,0,0,0,0,185,3,5,0,false
0.9.0,3,1,0,0,0,1,6,1,45,2,7,0,false
0.9.0,16,8,3,0,0,5,6,8,45,3,13,3,false
0.9.0,10,5,2,0,1,0,0,3,37,3,9,0,false
0.9.6,3,1,0,0,0,1,0,0,168,1,1,0,false
0.9.6,20,7,11,0,0,1,0,0,168,2,3,2,false
0.9.0,7,2,0,0,1,0,3,0,45,2,7,1,false
0.9.6,2,1,0,0,0,0,0,0,94,2,2,0,false
0.9.0,1,1,0,0,0,0,1,0,45,1,4,0,false
0.9.6,3,1,0,0,0,1,0,0,185,1,2,0,false
0.9.0,3,1,0,0,0,1,0,2,45,3,13,0,false
0.9.6,3,1,0,0,0,1,6,1,185,2,3,0,true
0.9.0,1,1,0,0,0,0,0,0,45,3,8,0,false
0.9.0,3,1,0,0,0,1,0,0,0,1,4,0,false
0.9.0,3,1,0,0,0,1,2,0,45,2,5,0,false
0.9.6,24,16,8,1,2,5,2,2,94,1,1,5,false
0.9.6,1,1,0,0,0,0,0,0,185,2,5,0,false
0.9.6,3,1,0,0,0,1,0,0,168,3,5,0,false
0.9.0,3,1,0,0,0,1,0,0,0,2,9,0,false
0.9.0,3,1,0,0,0,1,0,0,37,2,4,0,false
0.9.0,3,1,0,0,0,1,0,0,37,2,3,0,false
0.9.0,2,1,0,0,0,0,0,0,37,2,2,0,false
0.9.0,1,1,0,0,0,0,1,0,45,3,8,0,false
0.9.0,3,1,0,0,0,0,0,3,45,2,7,0,false
0.9.0,7,2,0,0,1,0,1,0,45,2,7,1,false
0.9.0,15,6,5,0,0,3,2,11,45,2,8,0,false
0.9.6,6,4,1,0,0,3,1,0,185,2,8,1,false
0.9.6,4,1,0,0,0,0,0,0,185,1,1,1,false
0.9.6,5,2,0,0,0,2,0,1,185,4,19,0,true
0.9.6,3,1,0,0,0,1,0,0,185,1,1,0,false
0.9.6,24,9,9,2,0,0,1,9,168,1,1,1,true
0.9.0,4,2,0,0,0,1,0,2,37,3,6,0,false
0.9.0,1,1,0,0,0,0,0,0,45,3,8,0,false
0.9.6,7,3,2,0,0,1,0,0,168,2,2,1,false
0.9.6,6,2,1,0,0,2,1,3,185,3,6,2,true
0.9.6,10,2,1,1,1,1,1,2,168,2,5,1,false
0.9.0,18,12,2,0,0,0,1,7,45,3,8,6,false
0.9.6,44,20,11,0,0,5,27,7,185,4,13,3,true
0.9.6,9,3,0,0,1,0,2,0,185,2,2,0,true
0.9.0,1,1,0,0,0,0,1,0,45,3,6,0,false
0.9.6,2,1,0,0,0,0,0,0,185,1,1,0,false
0.9.6,5,2,1,0,0,1,1,1,168,2,2,2,false
0.9.0,5,3,0,0,0,2,11,8,45,3,11,0,false
0.9.0,3,1,0,0,0,0,1,1,45,3,5,0,false
0.9.6,8,2,0,0,1,1,0,2,185,2,2,1,true
0.9.0,32,32,6,0,1,7,1,7,45,3,8,3,false
0.9.6,4,1,0,0,0,1,0,0,185,1,1,0,false
0.9.6,14,6,5,0,0,1,1,2,185,1,1,2,false
0.9.6,1,1,0,0,0,0,1,0,168,1,1,0,false
0.9.6,3,1,1,0,0,0,1,0,168,1,1,0,false
0.9.0,4,3,1,0,0,2,0,0,37,2,3,0,false
0.9.6,3,1,0,0,0,1,0,2,185,3,4,0,false
0.9.6,3,1,0,0,0,1,1,0,185,1,3,0,true
0.9.6,3,1,0,0,0,1,0,1,185,3,10,0,false
0.9.0,4,3,1,0,0,0,0,0,45,2,4,0,false
0.9.6,3,1,0,0,0,1,0,0,185,3,5,0,false
0.9.6,1,1,0,0,0,0,0,0,185,2,4,0,false
0.9.6,8,2,0,0,1,0,0,2,185,2,2,1,true
0.9.0,3,1,0,0,0,0,0,0,0,1,5,0,false
0.9.6,1,1,0,0,0,0,0,0,185,2,4,0,false
0.9.0,1,1,0,0,0,0,2,0,45,2,5,0,false
0.9.0,3,1,1,0,0,0,0,0,45,2,5,0,false
0.9.0,3,1,1,0,0,0,0,0,45,3,11,0,false
0.9.6,4,2,0,0,0,2,1,0,185,3,10,0,true
0.9.6,1,1,0,0,0,0,2,0,185,2,2,0,false
0.9.6,3,1,0,0,0,1,0,0,168,3,5,0,false
0.9.0,3,1,0,0,0,1,2,0,45,1,4,0,false
0.9.6,16,7,3,1,1,5,0,2,185,3,4,2,false
0.9.6,1,1,0,0,0,0,3,0,168,1,1,0,false
0.9.6,3,1,0,0,0,0,0,0,185,2,5,0,false
0.9.6,7,3,2,0,0,1,4,0,168,3,5,1,false
0.9.6,3,1,0,0,0,0,0,0,185,2,4,0,false
0.9.0,3,1,0,0,0,1,0,1,45,2,7,0,false
0.9.0,3,1,0,0,0,0,0,0,45,3,7,0,false
0.9.0,3,1,0,0,0,1,1,0,45,3,10,0,false
0.9.0,3,2,0,0,0,1,0,0,0,1,6,0,false
0.9.6,3,1,0,0,0,1,0,0,185,1,1,0,false
0.9.6,5,2,1,0,0,0,1,2,168,2,7,0,false
0.9.6,3,1,0,0,0,0,0,3,185,2,3,0,true
0.9.0,4,2,1,0,0,1,1,0,45,3,11,1,false
0.9.0,3,1,0,0,0,1,0,0,45,3,6,0,false
0.9.0,3,1,0,0,0,0,0,0,0,1,5,0,false
0.9.6,3,1,0,0,0,1,0,1,168,2,2,0,false
0.9.0,35,16,13,5,0,1,2,1,0,2,5,0,false
0.9.0,3,1,0,0,0,1,1,0,37,2,6,0,false
0.9.0,3,1,0,0,0,1,2,0,45,1,3,0,false
0.9.0,3,1,1,0,0,0,0,0,0,1,8,0,false
0.9.6,3,2,0,0,0,1,13,0,185,3,6,0,true
0.9.0,3,1,0,0,0,1,24,1,45,2,8,2,false
0.9.6,4,1,0,0,0,0,0,1,185,1,2,0,true
0.9.6,8,2,0,0,1,0,0,2,185,2,2,1,true
0.9.0,4,1,0,0,0,0,0,1,37,2,3,0,false
0.9.0,3,1,0,0,0,1,3,0,45,3,10,0,false
0.9.6,7,2,1,0,0,2,0,0,168,3,3,0,false
0.9.0,5,1,2,0,0,1,0,0,45,3,7,0,false
0.9.0,3,1,0,0,0,1,0,1,37,2,6,0,false
0.9.0,7,4,0,0,0,3,2,0,45,2,4,0,false
0.9.0,3,1,0,0,0,1,0,0,37,3,6,0,false
0.9.0,1,1,0,0,0,0,1,0,0,2,12,0,false
0.9.6,28,10,5,0,0,1,1,4,185,3,6,1,true
0.9.0,1,1,0,0,0,0,1,0,45,2,5,0,false
0.9.0,3,1,0,0,0,0,0,0,45,3,7,0,false
0.9.0,1,1,0,0,0,0,0,0,45,3,6,0,false
0.9.0,3,1,0,0,0,1,0,0,45,1,4,0,false
0.9.0,8,1,0,0,1,1,0,4,45,2,7,0,false
0.9.6,3,1,0,0,0,0,1,1,168,2,7,0,false
0.9.6,3,1,0,0,0,1,0,4,185,2,2,0,true
0.9.0,16,5,1,0,1,1,4,6,45,3,13,0,false
0.9.6,6,2,2,0,0,0,0,2,94,1,1,0,false
0.9.6,19,3,2,0,0,0,0,0,168,3,5,8,false
0.9.6,11,2,2,0,1,1,0,2,185,1,1,0,false
0.9.6,8,4,4,0,0,3,0,2,185,2,2,0,true
0.9.0,3,1,0,0,0,0,0,0,0,1,6,0,false
0.9.6,33,6,8,0,4,0,1,6,168,1,1,4,false
0.9.6,3,1,0,0,0,1,1,1,185,2,4,0,false
0.9.6,3,1,0,0,0,1,0,0,185,1,3,0,false
0.9.6,4,2,1,0,0,0,3,1,185,2,5,0,false
0.9.0,5,3,3,0,0,0,0,1,0,1,4,0,false
0.9.6,3,1,0,0,0,1,2,0,168,3,5,0,false
0.9.0,3,2,1,0,0,0,0,1,0,2,6,0,false
0.9.0,3,1,0,0,0,0,0,0,0,1,8,0,false
0.9.6,3,1,0,0,0,1,2,0,168,3,5,0,false
0.9.0,3,1,0,0,0,1,0,0,37,2,4,0,false
0.9.0,4,2,1,0,0,1,1,1,0,2,12,0,false
0.9.6,14,1,4,0,0,0,1,0,185,1,1,12,false
0.9.6,3,1,0,0,0,0,0,0,168,3,5,0,false
0.9.0,3,1,0,0,0,1,0,0,0,1,6,0,false
0.9.6,3,1,0,0,0,1,0,1,185,3,10,0,false
0.9.0,3,1,0,0,0,0,0,0,0,1,4,0,false
0.9.0,3,1,0,0,0,1,0,1,45,3,13,0,false
0.9.6,1,1,0,0,0,0,1,0,168,1,2,0,false
0.9.0,1,1,0,0,0,0,2,0,45,3,8,0,false
0.9.0,3,1,0,0,0,1,0,0,37,3,6,0,false
0.9.6,3,1,0,0,0,1,0,0,168,2,2,0,false
0.9.0,4,1,2,0,0,0,0,0,2,1,1,0,false
0.9.6,3,1,0,0,0,1,0,1,168,1,1,0,false
0.9.6,12,3,2,0,0,0,1,6,185,4,16,0,false
0.9.6,3,1,0,0,0,1,0,0,185,1,1,0,false
0.9.6,27,10,13,7,0,5,0,1,94,1,1,2,false
0.9.0,3,1,0,0,0,0,0,0,45,3,13,0,false
0.9.0,28,15,6,0,0,0,3,2,45,2,7,6,false
0.9.6,4,3,0,0,0,2,0,0,168,1,1,0,false
0.9.6,15,3,2,0,2,2,0,0,168,1,1,0,false
0.9.0,3,1,0,0,0,1,0,0,37,2,3,0,false
0.9.0,4,3,0,0,0,2,1,0,0,2,9,0,false
0.9.0,3,1,0,0,0,1,0,0,37,2,6,0,false
0.9.0,3,1,0,0,0,1,0,0,45,2,4,0,false
0.9.6,1,1,0,0,0,0,0,0,185,2,4,0,false
0.9.6,1,1,0,0,0,0,0,0,185,2,5,0,false
0.9.0,1,1,0,0,0,0,1,0,37,2,3,0,false
0.9.6,9,1,0,0,1,1,0,4,185,4,19,0,true
0.9.6,3,1,0,0,0,1,0,0,168,1,1,0,false
0.9.6,6,2,0,0,0,0,0,0,185,1,1,0,false
0.9.0,10,8,9,0,0,1,1,5,45,2,8,3,false
0.9.0,3,1,0,0,0,1,0,0,37,3,6,0,false
0.9.0,20,6,14,0,0,1,1,14,45,2,8,1,false
0.9.0,3,1,1,0,0,0,0,0,37,2,3,0,false
0.9.0,2,1,0,0,0,0,1,0,45,4,8,0,false
0.9.6,3,1,0,0,0,1,0,0,168,2,5,0,true
0.9.0,3,2,0,0,0,0,0,0,0,1,5,0,false
0.9.6,14,3,1,2,2,2,2,0,185,3,4,2,false
0.9.0,3,1,0,0,0,1,0,0,37,1,2,0,false
0.9.0,3,1,1,0,0,0,0,0,45,1,4,0,false
0.9.6,5,2,1,0,0,1,2,1,168,2,7,0,false
0.9.6,3,1,0,0,0,1,2,1,168,2,2,0,false
0.9.0,6,1,2,0,0,0,1,2,37,2,3,2,false
0.9.6,3,1,0,0,0,1,0,0,168,1,3,0,false
0.9.0,3,1,0,0,0,1,1,0,45,2,6,0,false
0.9.0,3,1,1,0,0,0,0,0,45,1,5,0,false
0.9.0,3,1,0,0,0,1,1,1,0,1,5,1,false
0.9.0,7,3,2,0,0,0,2,1,45,2,6,0,false
0.9.6,3,1,0,0,0,0,0,0,168,3,5,0,false
0.9.0,3,1,0,0,0,1,0,1,45,3,11,0,false
0.9.6,12,5,3,0,1,0,1,0,185,2,2,2,false
0.9.6,3,1,0,0,0,0,0,1,168,2,3,0,false
0.9.0,3,1,0,0,0,1,0,0,45,1,7,0,false
0.9.6,3,1,0,0,0,0,0,0,94,1,1,0,false
0.9.6,3,1,1,0,0,0,0,0,168,1,2,0,false
0.9.0,3,1,0,0,0,1,0,0,45,2,5,0,false
0.9.0,3,1,0,0,0,1,0,0,37,2,2,0,false
0.9.6,3,1,0,0,0,1,0,0,149,2,2,0,false
0.9.6,3,1,1,0,0,0,0,0,185,2,4,0,false
0.9.6,3,1,0,0,0,0,0,0,185,1,1,0,false
0.9.0,27,12,14,0,0,1,4,3,37,2,6,0,false
0.9.6,26,8,4,0,1,2,5,1,185,4,16,0,false
0.9.6,6,2,0,0,0,1,0,2,168,3,4,0,false
0.9.6,3,1,0,0,0,1,0,0,185,1,1,0,false
0.9.0,3,1,0,0,0,1,0,2,45,2,7,0,false
0.9.0,3,1,0,0,0,0,0,1,37,2,2,0,false
0.9.6,3,1,0,0,0,1,0,0,168,1,1,0,false
0.9.6,3,1,1,0,0,0,3,0,168,1,1,0,false
0.9.6,3,1,0,0,0,0,0,0,185,2,4,0,false
0.9.6,4,7,1,0,0,0,1,1,185,1,1,0,false
0.9.0,3,2,0,0,0,1,0,0,45,1,4,0,false
0.9.0,3,1,0,0,0,1,0,0,0,1,7,0,false
0.9.6,3,1,0,0,0,1,0,0,185,1,1,0,false
0.9.0,5,2,1,1,0,2,0,1,37,3,3,0,false
0.9.0,3,1,0,0,0,0,0,0,45,3,13,0,false
0.9.0,3,1,0,0,0,0,0,0,45,2,5,0,false
0.9.0,3,1,0,0,0,1,2,11,45,2,7,0,false
0.9.6,3,1,0,0,0,0,0,0,185,2,4,0,false
0.9.0,3,1,0,0,0,0,0,0,0,1,6,0,false
0.9.6,4,1,2,0,0,0,1,0,185,2,5,0,false
0.9.0,3,1,0,0,0,1,1,0,37,2,6,0,false
0.9.0,1,1,0,0,0,0,2,0,45,2,5,0,false
0.9.0,3,1,0,0,0,1,0,1,37,2,4,0,false
0.9.6,3,1,1,0,0,0,2,0,185,2,4,0,false
0.9.0,4,2,0,0,0,1,1,0,45,2,6,0,false
0.9.6,12,6,7,0,0,0,0,6,168,1,1,1,false
0.9.0,3,1,0,0,0,1,0,0,37,2,3,0,false
0.9.0,3,1,0,0,0,0,0,1,37,2,4,0,false
0.9.0,6,2,0,0,0,0,4,5,37,2,3,1,false
0.9.6,3,1,0,0,0,1,1,0,185,4,19,0,true
0.9.6,6,3,1,0,0,2,3,4,168,1,1,0,false
0.9.6,3,1,0,0,0,1,0,0,185,3,10,0,false
0.9.0,3,1,0,0,0,1,0,0,37,2,3,0,false
0.9.0,4,2,0,0,0,0,4,0,45,1,4,0,false
0.9.6,3,1,0,0,0,0,0,1,168,1,1,0,false
0.9.6,3,1,0,0,0,0,0,2,185,2,3,0,true
0.9.6,1,1,0,0,0,0,0,0,168,3,5,0,false
0.9.0,9,6,2,0,0,4,2,1,37,2,6,0,false
0.9.0,3,1,1,0,0,0,0,0,45,3,7,0,false
0.9.0,3,1,0,0,0,0,0,1,45,2,8,0,false
0.9.6,4,1,0,0,0,0,0,0,168,1,1,0,false
0.9.0,48,8,13,3,0,1,1,4,45,1,4,16,false
0.9.6,15,5,2,1,1,0,0,2,94,1,1,0,false
0.9.6,43,10,11,0,4,1,0,6,168,1,1,9,false
0.9.6,4,1,0,0,0,1,0,2,185,2,2,0,true
0.9.0,1,1,0,0,0,0,1,0,45,3,8,0,false
0.9.0,3,2,0,0,0,0,0,1,45,3,13,0,false
0.9.0,25,8,11,1,0,5,1,3,0,1,7,3,false
0.9.0,3,1,0,0,0,1,1,0,0,1,5,0,false
0.9.6,1,1,0,0,0,0,1,0,168,1,2,0,false
0.9.6,1,1,0,0,0,0,1,0,168,1,1,0,true
0.9.6,3,1,0,0,0,1,0,1,185,2,3,0,true
0.9.6,3,1,0,0,0,1,2,1,168,2,2,0,false
0.9.6,3,1,0,0,0,1,0,0,94,2,2,0,false
0.9.6,23,5,6,0,1,1,0,8,185,4,14,2,true
0.9.6,3,1,1,0,0,0,2,0,168,1,1,0,false
0.9.0,5,2,0,0,0,2,0,3,45,3,11,0,false
0.9.6,3,1,0,0,0,0,0,0,185,2,2,0,true
0.9.0,3,1,0,0,0,1,0,1,37,2,5,0,false
0.9.0,3,1,0,0,0,0,0,0,45,2,5,0,false
0.9.0,7,4,2,0,0,3,0,2,45,4,9,0,false
0.9.6,3,1,0,0,0,1,0,0,168,1,2,0,false
0.9.0,3,1,0,0,0,1,0,0,37,2,3,0,false
0.9.6,3,1,0,0,0,0,0,0,185,1,1,0,false
0.9.0,9,2,3,0,0,1,2,3,45,3,8,1,false
0.9.0,3,1,0,0,0,1,0,1,45,2,6,0,false
0.9.0,4,1,0,0,0,0,0,2,45,3,13,0,false
0.9.6,15,2,11,0,0,1,1,14,185,3,9,0,false
0.9.0,9,2,0,0,1,1,1,2,45,3,7,1,false
0.9.0,4,2,0,0,0,2,0,0,45,1,3,0,false
0.9.6,3,1,0,0,0,0,0,1,185,2,3,0,true
0.9.6,3,1,0,0,0,1,0,0,94,2,2,0,false
0.9.0,7,3,2,0,0,1,4,3,45,3,8,1,false
0.9.6,3,1,0,0,0,1,0,0,185,2,6,0,true
0.9.6,2,1,0,0,0,0,0,0,168,1,1,0,false
0.9.0,5,4,0,0,0,0,0,1,37,2,2,2,false
0.9.6,1,1,0,0,0,0,1,0,168,1,1,0,true
0.9.6,5,3,0,1,0,3,9,0,168,2,7,0,false
0.9.6,3,2,0,0,0,1,0,0,185,2,4,0,false
0.9.6,3,1,0,0,0,1,0,2,185,2,3,0,true
0.9.0,9,2,0,0,1,1,9,1,0,1,8,0,false
0.9.0,5,4,1,0,0,2,2,1,45,3,13,0,false
0.9.0,3,1,0,0,0,1,0,0,45,3,11,0,false
0.9.6,3,1,0,0,0,1,0,0,185,1,1,0,false
0.9.0,5,1,2,0,0,0,0,0,37,2,2,0,false
0.9.0,3,1,0,0,0,0,0,0,0,1,6,0,false
0.9.6,4,1,0,0,0,0,0,1,94,1,1,0,false
0.9.6,9,3,2,0,0,0,2,0,168,2,6,3,false
0.9.0,6,2,2,0,0,2,0,6,45,3,13,2,false
0.9.6,12,4,3,0,0,1,1,1,185,1,1,1,false
0.9.0,3,1,0,0,0,1,0,0,45,2,6,0,false
0.9.0,3,1,0,0,0,1,2,0,45,3,8,0,false
0.9.0,4,2,1,0,0,1,1,0,0,2,12,0,false
0.9.0,3,1,0,0,0,1,0,0,45,1,4,0,false
0.9.0,3,1,0,0,0,0,1,1,37,2,4,0,false
0.9.0,13,2,3,0,0,1,0,0,37,2,4,3,false
0.9.6,4,2,0,0,0,2,0,0,168,2,5,0,true
0.9.6,3,1,0,0,0,0,0,1,168,2,3,0,false
0.9.0,3,1,0,0,0,0,0,1,37,2,4,0,false
0.9.6,5,2,1,0,0,0,0,1,168,2,2,1,false
0.9.6,5,1,0,0,0,0,0,0,185,1,1,2,false
0.9.0,25,7,11,0,0,1,7,20,45,2,8,10,false
0.9.6,3,1,0,0,0,1,2,0,185,1,2,0,false
0.9.0,3,1,0,0,0,1,2,1,45,3,5,0,false
0.9.6,28,18,7,0,0,1,2,13,185,2,2,3,true
0.9.6,3,1,1,0,0,0,1,1,168,2,7,0,false
0.9.0,13,7,2,1,0,0,0,6,45,1,4,3,false
0.9.0,2,1,0,0,0,0,2,0,45,2,6,0,false
0.9.0,3,1,0,0,0,1,0,0,37,3,6,0,false
0.9.0,1,1,0,0,0,0,0,0,45,1,4,0,false
0.9.0,3,1,0,0,0,1,0,0,37,2,2,0,false
0.9.6,11,6,1,0,0,6,9,3,168,2,7,9,false
0.9.0,21,7,8,4,1,3,0,0,45,3,10,6,false
0.9.6,3,1,0,0,0,1,0,0,185,4,19,0,true
0.9.6,4,3,0,0,0,2,1,1,185,4,16,0,false
0.9.0,7,1,1,0,0,1,3,3,37,2,5,0,false
0.9.6,9,2,0,0,1,1,0,2,185,4,19,0,true
0.9.0,3,1,0,0,0,1,0,0,0,1,4,0,false
0.9.6,3,1,0,0,0,1,0,1,185,2,2,0,true
0.9.0,3,2,0,0,0,1,1,1,45,2,6,0,false
0.9.0,3,1,0,0,0,1,0,0,0,1,4,0,false
0.9.0,3,1,0,0,0,1,0,1,37,2,2,0,false
0.9.0,3,1,0,0,0,1,0,0,45,3,11,0,false
0.9.6,7,3,2,0,0,0,0,1,168,2,2,2,false
0.9.0,9,3,3,0,0,1,0,0,0,1,5,0,false
0.9.6,3,1,0,0,0,1,0,0,185,2,4,0,false
0.9.6,3,1,0,0,0,1,0,0,185,1,1,0,false
0.9.6,8,2,2,0,0,0,1,0,185,2,2,0,false
0.9.6,3,1,0,0,0,1,0,0,185,1,1,0,false
0.9.0,3,1,1,0,0,0,0,0,45,2,5,0,false
0.9.0,3,1,0,0,0,1,0,0,0,1,4,0,false
0.9.6,3,1,0,0,0,1,0,0,185,1,1,0,false
0.9.0,1,1,0,0,0,0,1,0,37,2,2,0,false
0.9.6,8,2,0,0,1,0,0,2,185,2,2,1,true
0.9.0,4,1,1,0,0,1,0,2,37,2,5,1,false
0.9.0,3,1,0,0,0,0,0,0,45,1,4,0,false
0.9.6,3,1,0,0,0,1,0,0,185,2,2,0,true
0.9.6,1,1,0,0,0,0,3,0,185,2,2,0,true
0.9.6,1,1,0,0,0,0,0,0,185,2,5,0,false
0.9.6,4,2,1,0,0,1,8,1,168,2,5,0,false
0.9.0,5,2,2,4,0,1,0,0,45,3,11,1,false
0.9.6,3,1,0,0,0,1,0,0,168,1,1,0,false
0.9.0,3,2,1,0,0,0,1,1,45,2,7,0,false
0.9.6,3,1,0,0,0,1,0,0,185,2,2,0,false
0.9.6,4,1,0,0,0,1,0,1,185,1,2,0,false
0.9.6,3,1,0,0,0,1,0,0,185,1,1,0,false
0.9.6,4,1,0,0,0,1,0,3,185,2,2,1,true
0.9.0,9,3,0,0,1,2,0,2,45,2,5,1,false
0.9.6,4,2,0,0,0,0,2,1,185,1,1,0,false
0.9.0,36,21,15,0,0,7,5,8,45,2,10,2,false
0.9.6,3,1,0,0,0,0,0,0,185,2,5,0,false
0.9.0,8,2,0,0,1,1,1,2,45,3,7,1,false
0.9.0,4,2,1,0,0,1,0,1,37,2,4,0,false
0.9.6,3,2,0,0,0,1,0,0,185,4,16,0,false
0.9.0,4,2,0,0,0,2,1,0,45,2,5,0,false
0.9.0,4,2,0,0,0,0,0,1,37,2,2,0,false
0.9.0,3,1,0,0,0,1,0,0,37,2,5,0,false
0.9.0,3,1,0,0,0,1,0,2,37,2,5,0,false
0.9.0,3,1,0,0,0,1,0,0,0,1,4,0,false
0.9.0,8,2,0,0,1,1,0,2,45,3,7,1,false
0.9.0,15,8,6,0,0,4,4,5,37,2,5,2,false
0.9.6,38,21,7,0,2,2,3,2,168,3,6,10,false
0.9.6,3,1,0,0,0,1,0,1,94,1,1,0,false
0.9.0,3,2,0,0,0,0,2,1,45,3,13,0,false
0.9.0,9,1,0,0,1,0,0,3,45,3,11,0,false
0.9.0,9,3,1,0,0,1,1,1,45,2,4,0,false
0.9.0,4,3,0,0,0,2,0,0,0,1,5,0,false
0.9.6,4,2,0,1,0,1,0,0,94,1,1,0,false
0.9.0,3,1,0,0,0,1,5,0,45,3,13,0,false
0.9.0,1,1,0,0,0,0,1,0,45,1,3,0,false
0.9.0,3,1,0,0,0,0,0,0,45,3,7,0,false
0.9.0,3,1,0,0,0,1,3,0,45,2,7,0,false
0.9.6,3,1,0,0,0,1,1,0,168,2,5,0,false
0.9.0,2,1,0,0,0,0,0,0,45,2,7,0,false
0.9.0,3,1,0,0,0,1,1,1,45,3,5,0,false
0.9.0,3,1,0,0,0,0,0,0,0,1,4,0,false
0.9.6,3,1,0,0,0,1,0,0,185,2,4,0,false
0.9.0,1,1,0,0,0,0,8,0,45,2,5,0,false
0.9.0,13,3,4,0,0,1,3,5,0,1,5,0,false
0.9.0,3,1,0,0,0,1,1,0,45,1,4,0,false
0.9.0,3,1,0,0,0,1,18,0,45,2,5,0,false
0.9.0,9,7,1,0,0,1,0,7,45,2,6,0,false
0.9.0,19,8,6,1,0,4,0,2,0,1,5,0,false
0.9.6,4,2,0,0,0,1,0,2,185,3,10,0,false
0.9.0,3,1,0,0,0,1,0,0,45,2,5,0,false
0.9.6,3,1,0,0,0,1,0,2,185,2,2,0,false
0.9.0,12,5,3,0,0,0,3,1,37,1,2,3,false
0.9.0,8,3,3,0,0,1,3,2,37,3,6,1,false
0.9.6,18,7,9,2,0,0,1,3,168,1,1,0,false
0.9.6,11,5,0,0,0,3,0,0,185,1,1,0,false
0.9.0,1,1,0,0,0,0,1,0,45,1,3,0,false
0.9.6,20,8,6,0,1,2,3,0,185,2,6,6,true
0.9.0,43,27,9,5,1,0,1,8,45,3,8,5,false
0.9.6,1,1,0,0,0,0,1,0,168,1,1,0,false
0.9.0,4,2,2,0,0,0,1,0,45,1,7,0,false
0.9.0,4,1,0,0,0,0,0,2,37,3,6,0,false
0.9.0,52,24,18,0,0,3,1,2,37,2,8,6,false
0.9.6,2,1,0,0,0,0,0,0,185,3,5,0,false
0.9.0,25,5,7,0,0,2,2,22,45,2,8,6,false
0.9.6,5,3,1,0,0,2,0,0,168,2,3,1,false
0.9.0,3,2,0,0,0,1,0,0,37,3,6,0,false
0.9.6,10,5,2,0,0,3,2,2,94,1,1,0,false
0.9.0,1,1,0,0,0,0,0,0,45,3,6,0,false
0.9.0,9,3,0,0,1,2,1,2,45,2,5,1,false
0.9.0,21,6,8,0,0,1,3,11,45,2,8,1,false
0.9.6,1,1,0,0,0,0,1,0,168,1,1,0,true
0.9.6,3,1,0,0,0,1,0,0,168,2,2,0,false
0.9.0,3,1,1,0,0,0,0,0,45,2,6,0,false
0.9.6,3,1,1,0,0,0,0,0,185,4,14,0,true
0.9.6,3,6,0,0,0,0,8,0,185,4,19,0,true
0.9.6,4,1,0,0,0,0,0,2,185,3,10,0,false
0.9.0,4,1,0,0,0,0,0,2,45,3,13,0,false
0.9.6,3,2,0,0,0,1,4,0,168,2,7,0,false
0.9.6,3,1,0,0,0,1,0,0,62,1,2,0,false
0.9.6,8,2,0,0,1,1,0,2,185,2,2,1,true
0.9.0,6,2,3,0,0,0,1,1,37,2,4,2,false
0.9.0,3,1,0,0,0,1,0,0,0,1,4,0,false
0.9.0,3,1,1,0,0,0,0,0,37,2,3,0,false
0.9.0,3,1,0,0,0,1,0,0,0,1,6,0,false
0.9.6,6,4,2,0,0,3,8,0,185,2,2,1,false
0.9.6,3,1,0,0,0,1,18,0,185,4,14,0,true
0.9.0,9,3,0,0,1,1,1,2,45,1,4,1,false
0.9.0,7,3,1,0,0,2,3,1,37,2,6,1,false
0.9.6,14,3,2,0,2,1,1,1,94,2,2,1,false
0.9.6,3,1,0,0,0,1,0,1,168,2,2,0,false
0.9.6,3,1,0,0,0,1,6,0,185,4,14,0,true
0.9.0,1,1,0,0,0,0,2,0,45,2,7,0,false
0.9.0,4,2,0,0,0,2,2,0,0,2,9,0,false
0.9.6,5,3,3,0,0,0,3,0,185,4,16,0,false
0.9.6,3,1,0,0,0,1,0,1,185,2,2,0,true
0.9.0,15,5,4,0,1,0,1,12,37,1,2,1,false
0.9.0,3,1,0,0,0,0,0,0,45,1,3,0,false
0.9.6,9,3,0,0,1,1,0,2,185,1,1,1,false
0.9.6,3,1,0,0,0,1,2,0,185,2,5,0,false
0.9.0,56,16,19,0,4,4,2,10,37,2,5,4,false
0.9.6,4,1,0,0,0,0,0,2,185,3,10,0,false
0.9.6,9,2,1,0,1,1,0,0,168,2,5,1,true
0.9.6,5,2,0,1,0,0,1,0,168,2,7,0,false
0.9.6,3,1,0,0,0,1,0,0,185,1,1,0,false
0.9.0,15,6,4,0,0,2,4,0,0,2,13,1,false
0.9.6,3,1,1,0,0,0,0,0,168,1,2,0,false
0.9.6,3,1,0,0,0,1,0,1,185,3,10,0,false
0.9.0,3,2,1,0,0,0,0,0,45,2,5,0,false
0.9.0,3,1,1,0,0,0,0,0,45,1,3,0,false
0.9.6,3,1,0,0,0,1,2,0,185,2,5,0,false
0.9.6,1,1,0,0,0,0,2,0,185,2,2,0,true
0.9.0,9,1,0,0,1,1,0,4,45,3,11,0,false
0.9.0,3,1,0,0,0,0,0,0,45,2,5,0,false
0.9.6,10,2,1,0,1,0,2,2,185,4,19,0,true
0.9.6,6,4,4,0,0,0,0,1,168,3,5,2,false
0.9.0,3,1,0,0,0,1,1,1,45,3,5,0,false
0.9.0,3,1,0,0,0,1,0,0,45,2,5,0,false
0.9.0,3,1,0,0,0,1,0,2,45,1,5,0,false
0.9.0,18,3,3,0,2,0,0,5,45,3,11,0,false
0.9.6,12,7,4,0,0,4,0,1,168,1,1,4,false
0.9.6,8,1,0,0,1,1,0,1,94,1,1,0,false
0.9.0,3,1,0,0,0,0,0,0,45,2,4,0,false
0.9.6,14,5,7,0,0,0,1,3,185,2,2,6,true
0.9.6,1,1,0,0,0,0,0,0,185,2,5,0,false
0.9.6,10,3,0,0,0,3,1,4,168,1,1,0,false
0.9.0,4,1,1,0,0,1,1,0,37,3,9,2,false
0.9.0,3,1,0,0,0,0,0,1,37,2,4,0,false
0.9.6,1,1,0,0,0,0,0,0,185,2,2,0,false
0.9.0,21,5,1,0,2,1,1,2,0,2,6,1,false
0.9.0,4,2,1,0,0,0,0,0,0,1,6,0,false
0.9.6,4,1,2,0,0,0,0,0,168,1,2,0,false
0.9.0,8,4,4,0,0,3,0,2,45,2,6,0,false
0.9.0,1,1,0,0,0,0,2,0,45,2,5,0,false
0.9.0,3,1,0,0,0,1,0,0,45,1,3,0,false
0.9.6,3,1,0,0,0,1,0,0,185,1,1,0,false
0.9.6,10,3,3,0,0,3,3,7,185,3,9,1,false
0.9.6,6,3,1,0,0,0,3,1,185,4,19,0,true
0.9.0,3,1,0,0,0,1,0,0,45,2,5,0,false
0.9.0,3,1,0,0,0,1,0,0,0,1,4,0,false
0.9.6,1,1,0,0,0,0,0,0,185,2,5,0,false
0.9.0,3,1,0,0,0,1,0,0,37,2,3,0,false
0.9.0,1,1,0,0,0,0,2,0,45,4,8,0,false
0.9.0,3,1,0,0,0,1,1,3,45,3,13,0,false
0.9.0,4,1,1,0,0,1,0,3,37,2,2,0,false
0.9.6,4,1,0,0,0,1,0,1,168,1,1,0,false
0.9.6,4,2,2,0,0,0,1,0,168,2,7,0,false
0.9.6,13,10,5,0,0,1,0,5,168,1,1,2,false
0.9.6,9,3,1,0,1,2,2,1,168,3,6,1,false
0.9.0,3,1,0,0,0,1,1,1,0,1,6,1,false
0.9.0,3,1,0,0,0,1,4,0,37,2,5,0,false
0.9.6,3,1,0,0,0,1,0,1,168,3,4,0,false
0.9.0,4,1,1,0,0,0,1,0,37,1,2,0,false
0.9.6,16,5,4,0,0,4,1,1,185,1,3,4,false
0.9.0,16,5,1,0,1,1,4,6,45,3,13,0,false
0.9.6,21,9,8,0,0,0,9,13,185,4,14,4,true
0.9.6,3,1,0,0,0,0,0,0,185,2,4,0,false
0.9.6,3,1,0,0,0,1,0,0,185,1,1,0,false
0.9.6,2,1,0,0,0,0,0,0,185,3,5,0,false
0.9.6,10,5,0,0,0,0,2,2,185,3,6,0,true
0.9.0,3,1,0,0,0,0,0,0,45,3,7,0,false
0.9.6,13,3,1,0,1,1,0,3,185,2,4,0,false
0.9.0,1,1,0,0,0,0,1,0,45,1,4,0,false
0.9.6,15,6,5,0,0,2,5,2,185,4,13,0,true
0.9.6,3,1,0,0,0,0,0,3,185,2,3,0,true
0.9.0,3,1,0,0,0,1,0,1,45,3,13,0,false
0.9.0,2,1,0,0,0,0,0,0,45,3,6,0,false
0.9.0,1,1,0,0,0,0,0,0,45,1,3,0,false
0.9.0,8,3,2,0,0,2,1,5,45,2,6,2,false
0.9.0,3,1,0,0,0,1,0,0,0,1,4,0,false
0.9.0,14,3,2,1,1,1,0,8,0,1,8,0,false
0.9.6,3,1,0,0,0,1,0,0,168,2,2,0,false
0.9.0,4,1,0,0,0,0,0,2,37,2,2,0,false
0.9.0,3,1,0,0,0,1,0,0,45,2,6,0,false
0.9.0,4,1,0,0,0,0,0,2,37,2,3,0,false
0.9.6,10,3,0,0,1,0,0,1,168,2,5,0,true
0.9.0,3,1,0,0,0,1,1,0,45,2,6,0,false
0.9.0,8,2,0,0,1,1,0,2,45,3,7,1,false
0.9.0,3,2,1,0,0,0,1,1,45,1,4,0,false
0.9.6,3,1,0,0,0,1,0,0,83,2,2,0,false
0.9.6,3,1,0,0,0,1,0,0,168,2,3,0,false
0.9.6,3,1,1,0,0,0,0,0,168,1,2,0,false
0.9.6,3,2,0,0,0,1,0,1,185,2,2,0,true
0.9.6,4,1,0,0,0,0,0,2,168,3,4,0,false
0.9.0,12,5,6,0,0,0,1,6,37,1,2,1,false
0.9.0,4,2,0,1,0,1,0,2,0,1,8,0,false
0.9.6,1,1,0,0,0,0,0,0,185,2,5,0,false
0.9.6,3,1,0,0,0,0,0,0,185,2,4,0,false
0.9.6,3,1,0,0,0,0,0,0,185,2,4,0,false
0.9.0,3,1,0,0,0,1,0,1,45,2,6,0,false
0.9.0,9,3,0,0,1,1,0,2,45,2,5,1,false
0.9.6,4,1,0,0,0,0,0,1,185,1,2,0,true
0.9.0,12,8,5,0,0,0,1,4,45,3,8,3,false
0.9.6,5,1,1,0,0,0,1,4,168,1,3,0,false
0.9.6,2,1,0,0,0,0,1,2,185,4,13,0,true
0.9.0,4,2,0,0,0,2,11,0,0,2,9,0,false
0.9.6,8,1,5,0,0,1,3,0,94,2,2,1,false
0.9.6,3,1,0,0,0,0,0,1,185,2,4,0,false
0.9.0,3,1,0,0,0,1,4,1,45,3,8,0,false
0.9.0,6,2,1,0,0,0,2,1,37,2,6,0,false
0.9.6,3,1,0,0,0,1,0,1,185,4,19,0,true
0.9.6,8,2,0,0,1,0,0,2,185,2,2,1,true
0.9.0,33,16,7,0,1,0,3,11,45,3,11,5,false
0.9.0,3,2,0,0,0,0,1,0,37,1,2,0,false
0.9.0,2,1,0,0,0,0,0,0,45,1,3,0,false
0.9.0,4,2,2,0,0,0,2,0,45,3,13,0,false
0.9.6,3,1,0,0,0,1,0,0,185,2,4,0,false
0.9.0,9,6,3,0,0,2,2,3,45,3,8,1,false
0.9.0,16,9,0,0,1,1,79,5,45,3,11,1,false
0.9.6,3,1,0,0,0,0,0,0,168,3,5,0,false
0.9.0,3,1,0,0,0,0,0,0,37,2,3,0,false
0.9.0,4,3,0,0,0,2,6,3,45,2,7,2,false
0.9.0,3,1,0,0,0,1,25,0,45,3,8,0,false
0.9.6,16,9,6,0,0,1,2,2,168,2,2,3,false
0.9.6,7,3,1,0,0,0,1,3,185,3,6,0,true
0.9.6,12,4,3,0,0,0,1,1,168,1,1,2,false
0.9.6,10,3,3,0,0,2,2,2,168,2,3,0,false
0.9.6,1,1,0,0,0,0,0,0,185,2,4,0,false
0.9.6,14,7,2,0,0,5,17,10,185,2,5,4,false
0.9.6,6,1,0,0,0,0,0,0,168,2,2,0,false
0.9.6,10,3,1,0,1,0,0,2,70,2,10,1,false
0.9.0,3,1,0,0,0,1,0,0,45,2,5,0,false
0.9.6,5,3,1,0,0,2,1,0,94,2,2,1,false
0.9.0,2,1,0,0,0,0,0,0,0,1,5,0,false
0.9.0,3,1,0,0,0,1,0,0,0,1,5,0,false
0.9.0,3,1,1,0,0,0,0,0,0,1,8,0,false
0.9.6,5,2,1,0,0,1,3,0,185,3,4,0,false
0.9.6,3,1,0,0,0,1,0,0,94,1,1,0,false
0.9.0,3,2,0,0,0,0,2,1,0,1,5,0,false
0.9.0,1,1,0,0,0,0,0,0,45,3,6,0,false
0.9.0,4,1,1,0,0,1,2,1,0,2,9,0,false
0.9.0,3,1,0,0,0,1,0,0,37,2,4,0,false
0.9.6,6,4,2,0,0,2,0,1,185,1,2,1,false
0.9.6,4,1,0,0,0,0,0,0,185,1,1,0,false
0.9.0,3,2,0,0,0,1,11,1,45,3,10,0,false
0.9.0,10,3,4,0,0,1,1,2,37,2,6,1,false
0.9.0,9,5,4,1,0,2,0,0,37,1,2,0,false
0.9.6,4,2,1,0,0,1,2,0,185,4,13,0,true
0.9.6,21,17,9,10,0,2,1,1,185,1,1,1,false
0.9.6,3,1,0,0,0,1,0,0,185,1,1,0,false
0.9.6,5,2,2,0,0,1,19,1,168,2,7,0,false
0.9.6,3,1,0,0,0,0,0,0,94,1,1,0,false
0.9.0,1,1,0,0,0,0,1,0,45,2,5,0,false
0.9.0,1,1,0,0,0,0,11,0,45,2,5,0,false
0.9.0,3,1,1,0,0,0,0,0,37,2,2,0,false
0.9.6,3,1,0,0,0,1,1,0,185,2,4,0,false
0.9.0,13,4,2,0,1,2,0,2,45,2,5,0,false
0.9.6,3,1,0,1,0,1,0,2,185,2,2,0,true
0.9.6,2,1,0,0,0,0,0,0,185,3,5,0,false
0.9.0,1,1,0,0,0,0,1,0,0,1,4,0,false
0.9.0,3,1,1,0,0,0,0,0,37,2,5,0,false
0.9.0,3,1,0,0,0,1,0,0,37,2,3,1,false
0.9.0,3,1,0,0,0,1,0,0,45,3,7,0,false
0.9.0,3,1,0,0,0,1,0,0,45,2,7,0,false
0.9.0,1,1,0,0,0,0,0,0,45,3,8,0,false
0.9.0,3,1,0,0,0,1,0,0,45,3,13,0,false
0.9.0,3,1,0,0,0,1,0,0,0,2,9,0,false
0.9.0,3,1,0,0,0,0,0,3,45,2,7,0,false
0.9.0,5,3,0,1,0,3,5,0,37,2,3,0,false
0.9.0,3,1,0,0,0,1,0,0,0,1,4,0,false
0.9.0,3,1,0,0,0,1,1,0,45,1,4,0,false
0.9.0,3,1,1,0,0,0,2,0,45,2,6,0,false
0.9.6,48,8,13,3,0,1,1,4,185,1,1,16,false
0.9.0,3,1,0,0,0,1,0,1,45,3,13,0,false
0.9.6,3,1,0,0,0,1,6,1,185,3,9,0,false
0.9.6,1,1,0,0,0,0,0,0,185,2,5,0,false
0.9.6,13,4,1,0,1,0,2,2,168,2,5,0,true
0.9.0,5,1,1,0,0,0,0,0,37,2,4,0,false
0.9.0,7,3,1,0,0,0,1,4,45,2,6,0,false
0.9.6,8,4,2,0,0,1,1,1,185,1,1,1,true
0.9.0,3,1,0,0,0,1,0,0,0,1,4,0,false
0.9.6,17,14,1,0,1,6,0,15,94,1,1,0,false
0.9.0,3,1,0,0,0,1,0,0,0,1,6,0,false
0.9.6,14,7,0,0,0,4,1,0,185,1,1,1,false
0.9.6,10,4,1,0,0,3,0,1,185,4,16,0,false
0.9.0,1,1,0,0,0,0,7,0,37,2,3,0,false
0.9.0,42,13,2,0,0,0,1,13,0,1,5,1,false
0.9.0,3,1,0,0,0,0,0,0,0,1,4,0,false
0.9.0,3,1,0,0,0,1,4,0,37,2,6,0,false
0.9.6,3,1,0,0,0,1,0,0,185,3,5,0,false
0.9.6,3,1,0,0,0,1,0,1,168,1,1,0,false
0.9.6,3,1,0,0,0,0,0,0,168,3,5,0,false
0.9.0,3,1,0,0,0,0,0,1,37,2,2,0,false
0.9.6,3,1,0,0,0,1,0,0,168,1,1,0,false
0.9.0,1,1,0,0,0,0,0,0,45,3,8,0,false
0.9.0,3,1,0,0,0,0,0,1,45,3,13,0,false
0.9.0,3,1,1,0,0,0,0,0,45,2,5,0,false
0.9.6,3,1,0,0,0,1,0,0,185,2,4,0,false
0.9.6,14,2,0,0,0,0,1,1,185,4,16,0,false
0.9.6,3,1,0,0,0,1,0,0,0,1,1,0,false
0.9.0,3,1,0,0,0,0,0,0,45,2,5,0,false
0.9.0,4,1,0,0,0,1,0,0,45,2,5,0,false
0.9.0,3,1,0,0,0,1,0,1,45,2,7,0,false
0.9.0,5,3,1,0,0,0,5,1,45,3,8,1,false
0.9.6,3,1,0,0,0,1,0,0,168,2,2,0,false
0.9.0,3,1,0,0,0,1,1,1,45,1,4,0,false
0.9.6,3,1,0,0,0,1,0,0,185,1,1,0,false
0.9.0,1,1,0,0,0,0,1,0,45,3,8,0,false
0.9.0,4,1,2,0,0,0,0,1,37,1,2,0,false
0.9.0,4,1,0,0,0,0,0,0,37,2,4,1,false
0.9.6,3,2,1,0,0,0,0,0,185,4,13,0,true
0.9.0,3,1,1,0,0,0,0,0,45,1,7,0,false
0.9.6,2,1,0,0,0,0,0,0,185,3,9,0,false
0.9.6,8,2,0,0,1,1,0,2,185,2,2,1,true
0.9.6,3,1,0,0,0,1,0,0,94,1,1,0,false
0.9.0,3,1,0,0,0,1,0,0,45,3,7,0,false
0.9.6,4,1,0,0,0,0,0,2,185,3,10,0,false
0.9.0,4,1,0,0,0,0,0,1,0,1,8,0,false
0.9.6,3,1,0,0,0,1,0,0,185,1,1,0,false
0.9.0,9,5,5,0,0,3,0,1,45,2,5,0,false
0.9.0,9,3,0,0,1,2,1,4,45,2,5,1,false
0.9.0,5,1,2,0,0,1,0,0,0,1,7,0,false
0.9.0,3,1,0,0,0,1,1,1,45,2,6,0,false
0.9.6,5,2,0,0,0,1,0,4,185,2,2,0,true
0.9.0,3,1,0,0,0,1,0,0,0,1,5,0,false
0.9.0,3,1,0,0,0,1,1,2,45,2,5,0,false
0.9.6,3,1,0,0,0,1,0,0,83,2,2,0,false
0.9.6,8,2,0,0,1,0,0,2,185,2,2,1,true
0.9.6,7,1,0,0,0,0,0,5,185,2,2,0,false
0.9.0,6,2,2,0,0,1,2,2,0,1,6,1,false
0.9.0,1,1,0,0,0,0,0,0,45,1,4,0,false
0.9.6,3,1,0,0,0,0,0,0,185,2,4,0,false
0.9.0,6,2,2,0,0,0,0,3,37,2,3,0,false
0.9.0,57,22,4,0,0,1,1,1,45,2,6,58,false
0.9.6,4,1,1,0,0,0,2,1,185,4,16,0,false
0.9.0,3,1,0,0,0,1,0,1,0,1,5,0,false
0.9.0,6,3,1,0,0,0,1,1,37,2,3,5,false
0.9.0,2,1,0,0,0,0,0,0,37,2,3,0,false
0.9.0,1,1,0,0,0,0,0,0,45,3,8,0,false
0.9.0,6,3,2,0,0,2,0,1,0,1,8,0,false
0.9.6,3,1,0,0,0,1,2,0,185,2,2,0,true
0.9.6,8,2,4,0,0,2,0,4,185,2,2,2,true
0.9.6,3,1,0,0,0,0,0,3,185,2,3,0,true
0.9.6,3,1,0,0,0,0,0,0,168,1,1,0,false
0.9.6,3,1,0,0,0,0,0,0,168,3,5,0,false
0.9.6,4,2,0,0,0,2,2,1,185,4,16,0,false
0.9.0,3,1,0,0,0,0,0,0,45,2,5,0,false
0.9.0,14,5,1,0,1,2,0,6,45,3,11,1,false
0.9.0,3,1,0,0,0,1,0,1,45,2,7,0,false
0.9.0,1,1,0,0,0,0,8,0,45,2,5,0,false
0.9.6,4,2,1,0,0,1,1,0,185,4,7,1,false
0.9.0,3,2,0,0,0,0,0,1,45,2,5,0,false
0.9.6,3,1,0,0,0,1,0,0,185,1,1,0,false
0.9.0,4,1,0,0,0,0,0,2,37,3,9,0,false
0.9.6,1,1,0,0,0,0,0,0,185,2,5,0,false
0.9.0,15,6,2,1,0,1,0,0,37,1,2,0,false
0.9.0,20,8,0,0,0,8,2,0,45,2,6,0,false
0.9.0,22,13,7,0,0,1,3,6,37,2,6,0,false
0.9.6,5,1,2,0,0,1,0,0,185,2,4,0,false
0.9.6,32,7,8,0,1,2,6,10,185,1,1,8,true
0.9.6,3,1,0,0,0,1,0,0,185,4,14,0,true
0.9.6,22,12,5,0,0,3,0,6,185,4,16,1,false
0.9.0,4,2,0,0,0,2,3,2,45,3,11,0,false
0.9.0,3,1,0,0,0,1,0,1,37,2,5,0,false
0.9.6,3,2,0,0,0,0,0,1,185,3,10,0,false
0.9.6,8,2,0,0,1,1,0,2,185,2,2,1,true
0.9.0,1,1,0,0,0,0,0,0,45,3,8,0,false
0.9.6,3,1,0,0,0,0,0,0,185,1,1,0,false
0.9.0,3,1,0,0,0,1,1,0,45,2,6,0,false
0.9.6,1,1,0,0,0,0,1,0,185,2,2,0,true
0.9.0,2,1,0,0,0,0,0,0,37,3,9,0,false
0.9.6,3,1,0,1,0,1,1,0,185,1,1,0,false
0.9.6,3,1,0,0,0,0,0,0,168,1,1,0,false
0.9.6,1,1,0,0,0,0,3,0,185,2,2,0,true
0.9.6,35,17,16,0,0,4,4,3,168,1,4,6,false
0.9.6,3,2,0,0,0,1,1,1,185,2,5,0,false
0.9.0,9,3,2,0,0,1,0,5,37,3,6,0,false
0.9.0,42,12,12,0,4,1,2,7,37,2,6,6,false
0.9.0,3,1,0,0,0,1,0,0,37,1,2,0,false
0.9.6,4,2,1,0,0,1,0,0,168,1,1,0,false
0.9.0,60,6,9,0,0,0,1,9,45,4,8,21,false
0.9.6,6,2,0,0,0,0,0,1,94,1,1,0,false
0.9.6,3,1,0,0,0,0,0,0,185,1,1,0,false
0.9.6,3,1,1,0,0,0,0,0,168,2,2,0,false
0.9.6,4,1,2,0,0,0,0,0,185,2,5,0,false
0.9.0,3,1,0,0,0,1,0,0,37,1,2,0,false
0.9.0,3,1,0,0,0,0,0,2,0,2,9,0,false
0.9.6,38,11,3,1,0,1,1,1,185,1,1,0,false
0.9.0,3,1,0,0,0,1,0,0,0,1,4,0,false
0.9.0,3,1,0,0,0,1,4,1,45,3,8,0,false
0.9.0,3,1,0,0,0,0,0,0,0,1,4,0,false
0.9.6,3,1,0,0,0,0,0,1,168,2,2,1,false
0.9.0,25,9,7,0,1,2,3,8,45,2,6,5,false
0.9.6,25,9,7,0,1,2,3,7,185,1,1,5,true
0.9.6,5,1,2,0,0,1,0,0,168,2,3,0,false
0.9.6,29,27,1,0,0,26,2,0,168,1,1,16,false
0.9.0,4,2,1,0,0,0,2,2,45,2,6,2,false
0.9.0,3,1,0,0,0,1,0,1,45,3,6,0,false
0.9.6,3,1,0,0,0,1,1,1,94,4,7,0,false
0.9.6,1,1,0,0,0,0,2,0,185,1,2,0,false
0.9.0,3,1,0,0,0,1,0,0,45,1,4,0,false
0.9.0,10,2,0,0,1,1,0,2,37,3,6,0,false
0.9.0,6,4,2,0,0,0,1,4,37,2,3,1,false
0.9.0,3,1,1,0,0,0,0,0,37,2,2,0,false
0.9.6,3,1,0,0,0,0,0,0,185,1,1,0,false
0.9.6,4,1,1,0,0,0,0,4,185,1,3,0,true
0.9.0,3,1,0,0,0,1,0,0,0,1,4,0,false
0.9.0,8,2,1,0,0,1,3,1,45,2,7,0,false
0.9.0,22,8,7,0,1,5,1,0,45,2,10,3,false
0.9.0,3,1,0,0,0,1,0,0,37,3,6,0,false
0.9.6,3,1,0,0,0,1,0,0,185,4,14,0,true
0.9.0,3,1,0,0,0,1,0,0,45,1,4,0,false
0.9.0,3,1,1,0,0,0,3,0,45,2,6,0,false
0.9.0,4,2,0,0,0,2,1,1,45,2,6,0,false
0.9.0,4,1,0,0,0,0,1,0,45,2,7,0,false
0.9.0,3,1,0,0,0,1,1,0,45,1,4,0,false
0.9.6,3,1,0,0,0,1,0,1,185,2,2,0,true
0.9.6,3,1,0,0,0,1,0,0,168,3,5,0,false
0.9.6,3,1,0,0,0,1,9,0,185,4,13,0,true
0.9.0,4,1,0,0,0,0,0,2,45,3,13,0,false
0.9.0,3,1,0,0,0,1,0,0,45,3,13,0,false
0.9.0,3,1,0,0,0,1,1,0,45,2,6,0,false
0.9.6,3,2,0,0,0,1,0,0,168,1,1,0,false
0.9.6,16,6,6,0,0,1,2,0,94,1,1,4,false
0.9.0,3,1,0,0,0,1,1,0,37,1,2,0,false
0.9.0,3,1,0,0,0,1,0,0,37,2,2,0,false
0.9.0,9,4,2,0,0,1,0,9,37,2,5,0,false
0.9.0,3,1,0,0,0,1,1,1,0,1,6,0,false
0.9.6,3,2,0,0,0,1,5,0,168,2,7,0,false
0.9.0,14,11,5,3,0,5,2,0,0,2,13,7,false
0.9.0,3,1,0,0,0,1,0,0,37,2,6,0,false
0.9.6,13,7,3,0,0,2,1,0,94,2,2,0,false
0.9.0,3,1,0,0,0,1,10,1,45,2,7,0,false
0.9.0,35,8,4,0,2,0,0,10,45,2,7,2,false
0.9.0,3,1,0,0,0,1,1,0,45,1,4,0,false
0.9.0,4,2,0,0,0,1,0,2,37,3,6,0,false
0.9.6,3,1,0,0,0,0,0,0,94,1,1,0,false
0.9.6,8,1,0,0,1,0,0,1,94,1,1,0,false
0.9.0,9,6,2,0,0,3,5,4,45,3,11,0,false
0.9.6,3,1,0,0,0,0,0,1,185,2,4,0,false
0.9.6,4,1,1,0,0,1,2,3,185,1,2,4,true
0.9.6,25,9,6,0,2,0,1,0,94,1,1,11,false
0.9.0,7,3,2,0,0,1,2,1,37,2,5,0,false
0.9.0,3,2,0,0,0,0,11,1,45,2,6,0,false
0.9.6,49,39,11,0,0,12,1,11,168,2,5,4,false
0.9.0,3,2,0,0,0,1,1,1,37,2,6,0,false
0.9.6,3,1,0,0,0,1,0,2,185,1,3,0,true
0.9.6,3,1,0,0,0,1,0,1,185,3,5,0,true
0.9.0,15,4,4,0,0,0,1,0,45,1,3,0,false
0.9.6,17,14,1,0,1,1,0,15,94,1,1,1,false
0.9.0,26,11,8,1,0,2,4,2,0,1,8,1,false
0.9.0,5,1,1,0,0,0,1,0,45,4,8,2,false
0.9.0,14,6,5,0,0,1,1,2,45,2,6,2,false
0.9.0,3,1,0,2,0,1,1,0,45,2,7,0,false
0.9.6,3,1,0,0,0,1,7,0,185,1,2,0,false
0.9.0,3,1,1,0,0,0,0,0,37,2,3,0,false
0.9.6,3,1,0,0,0,0,0,1,185,4,14,0,true
0.9.6,15,7,2,0,0,1,1,2,185,4,7,0,false
0.9.6,3,1,0,0,0,1,0,1,185,3,10,0,false
0.9.6,11,3,4,2,0,0,0,0,185,3,9,0,false
0.9.6,3,1,0,0,0,1,0,0,185,1,1,0,false
0.9.6,10,5,2,0,0,0,3,6,185,4,14,4,true
0.9.6,3,1,1,0,0,0,0,0,168,3,3,0,false
0.9.6,1,1,0,0,0,0,0,0,168,1,1,0,false
0.9.0,2,1,0,0,0,0,0,0,37,3,9,0,false
0.9.0,3,2,0,0,0,1,2,1,45,2,8,0,false
0.9.0,6,3,1,0,0,0,1,1,45,2,7,0,false
0.9.6,1,1,0,0,0,0,2,0,185,1,2,0,false
0.9.0,3,1,0,0,0,0,0,0,0,1,6,0,false
0.9.6,3,1,0,0,0,1,0,0,185,1,1,0,false
0.9.0,3,1,0,0,0,0,0,0,45,2,5,0,false
0.9.0,5,2,2,0,0,0,1,0,37,1,2,0,false
0.9.0,3,1,0,0,0,0,0,0,0,1,5,0,false
0.9.6,7,1,1,0,0,1,0,3,168,2,5,0,false
0.9.0,7,3,0,0,0,3,0,0,45,2,6,1,false
0.9.0,1,1,0,0,0,0,0,0,45,3,6,0,false
0.9.6,3,1,0,0,0,1,2,0,94,1,1,0,false
0.9.6,4,1,2,0,0,0,0,1,168,1,1,0,false
0.9.0,13,4,1,0,1,0,6,0,37,2,3,1,false
0.9.0,3,1,0,0,0,1,0,0,0,1,4,0,false
0.9.0,3,1,0,0,0,1,1,0,45,2,8,1,false
0.9.0,40,12,13,0,1,0,2,3,45,3,8,4,false
0.9.0,3,1,0,0,0,1,0,0,45,2,6,0,false
0.9.0,3,2,0,0,0,1,1,0,37,1,2,0,false
0.9.0,7,1,1,0,0,1,3,3,37,2,4,0,false
0.9.0,3,2,0,0,0,1,0,0,37,1,2,0,false
0.9.6,3,1,0,0,0,0,0,0,185,1,1,0,false
0.9.6,3,1,0,0,0,1,0,0,0,1,1,0,false
0.9.6,32,18,12,0,0,4,3,1,168,2,6,1,false
0.9.0,3,2,0,0,0,1,4,0,45,2,6,0,false
0.9.6,3,1,0,0,0,0,0,0,185,2,4,0,false
0.9.0,3,1,0,0,0,1,0,0,37,2,2,0,false
0.9.0,7,3,4,0,0,1,2,4,45,4,8,0,false
0.9.6,3,1,0,0,0,1,0,0,168,3,5,0,false
0.9.6,4,1,0,0,0,0,0,1,185,1,2,0,true
0.9.0,11,1,0,0,0,0,0,0,45,2,4,0,false
0.9.0,4,2,0,0,0,2,0,0,37,3,6,0,false
0.9.6,3,1,0,0,0,1,0,0,185,1,1,0,false
0.9.0,5,2,1,0,0,2,1,0,45,3,8,0,false
0.9.0,3,1,0,0,0,1,0,0,45,2,5,0,false
0.9.0,3,1,0,0,0,0,0,0,45,2,5,0,false
0.9.0,4,3,2,0,0,1,2,1,0,1,6,0,false
0.9.6,3,1,1,0,0,0,0,0,168,1,2,0,false
0.9.6,1,1,0,0,0,0,1,0,185,2,2,0,true
0.9.0,39,21,15,0,0,1,0,15,45,2,6,0,false
0.9.0,3,1,0,0,0,1,0,1,37,1,2,0,false
0.9.6,16,5,1,0,1,1,1,6,185,4,14,0,true
0.9.6,3,1,0,0,0,1,0,1,168,2,2,1,false
0.9.0,3,1,0,0,0,0,0,0,0,1,6,0,false
0.9.6,3,1,0,0,0,1,0,0,185,1,2,0,false
0.9.6,1,1,0,0,0,0,2,0,185,1,2,0,false
0.9.0,4,1,0,0,0,1,0,0,45,2,5,0,false
0.9.0,8,3,2,0,0,0,0,0,45,1,5,0,false
0.9.0,3,1,0,0,0,0,0,1,45,1,4,0,false
0.9.0,22,7,0,0,0,0,1,6,0,1,6,0,false
0.9.0,1,1,0,0,0,0,1,0,0,1,4,0,false
0.9.6,18,12,5,0,0,4,3,3,168,1,1,0,true
0.9.0,1,1,0,0,0,0,9,0,45,3,6,0,false
0.9.6,3,1,0,0,0,1,0,0,185,1,3,0,false
0.9.0,3,1,0,0,0,0,1,1,37,2,4,0,false
0.9.0,7,1,1,0,0,1,3,3,37,2,4,0,false
0.9.0,42,12,18,1,0,2,2,0,37,1,2,2,false
0.9.0,16,4,2,0,1,1,4,2,45,1,5,1,false
0.9.0,5,3,0,0,0,1,0,1,45,3,10,1,false
0.9.0,3,1,0,0,0,1,0,0,45,3,7,0,false
0.9.0,3,1,0,0,0,1,0,0,45,3,6,0,false
0.9.0,3,2,0,0,0,1,2,0,45,1,4,0,false
0.9.6,3,1,0,0,0,1,0,2,168,1,1,0,false
0.9.6,1,1,0,0,0,0,0,0,185,2,4,0,false
0.9.6,1,1,0,0,0,0,2,0,185,1,2,0,false
0.9.6,2,1,0,0,0,0,0,0,168,1,1,0,false
0.9.6,1,1,0,0,0,0,5,0,168,1,1,0,false
0.9.0,44,11,6,0,2,2,3,12,37,1,2,12,false
0.9.6,10,6,2,0,0,4,9,3,185,4,13,1,true
0.9.6,12,6,6,1,0,2,2,1,185,1,1,1,false
0.9.0,3,1,0,0,0,1,0,0,45,2,8,0,false
0.9.0,3,1,0,0,0,1,0,0,0,1,4,0,false
0.9.0,3,1,0,0,0,0,0,3,0,2,6,0,false
0.9.6,3,1,0,0,0,1,0,1,168,3,5,0,false
0.9.6,3,1,0,0,0,0,0,0,185,2,4,0,false
0.9.0,3,1,1,0,0,0,0,0,37,1,2,0,false
0.9.6,2,1,0,0,0,0,0,0,168,1,2,0,false
0.9.0,3,1,0,0,0,0,0,0,37,2,2,0,false
0.9.6,4,2,1,0,0,1,6,0,185,2,5,0,false
0.9.6,3,1,0,0,0,1,0,0,168,1,1,0,false
0.9.6,3,1,0,0,0,1,0,0,185,2,5,0,false
0.9.6,3,1,0,0,0,1,1,1,185,4,19,0,true
0.9.0,3,1,0,0,0,0,0,0,0,1,5,0,false
0.9.6,3,1,0,0,0,0,0,0,168,3,5,0,false
0.9.0,21,4,4,0,2,0,0,7,45,3,11,0,false
0.9.0,3,1,0,0,0,1,0,0,45,3,7,0,false
0.9.6,3,1,0,0,0,1,1,0,94,1,1,0,false
0.9.6,3,1,0,0,0,1,0,0,168,3,3,0,false
0.9.6,3,1,0,0,0,1,5,0,185,2,5,0,false
0.9.6,3,2,0,0,0,1,1,0,185,3,9,0,false
0.9.6,17,9,3,3,0,3,0,1,168,1,2,3,false
0.9.0,3,1,0,0,0,1,0,0,0,1,4,0,false
0.9.6,3,1,0,0,0,1,0,0,185,4,19,0,true
0.9.0,3,1,0,0,0,1,0,0,45,2,8,0,false
0.9.0,3,1,1,0,0,0,1,0,45,1,4,0,false
0.9.6,3,1,0,0,0,1,1,0,94,1,1,0,false
0.9.0,4,1,0,0,0,0,0,2,45,3,13,0,false
0.9.0,3,1,0,0,0,1,0,0,0,1,5,0,false
0.9.0,3,1,1,0,0,0,0,0,37,2,4,0,false
0.9.6,4,1,2,0,0,0,0,0,185,2,2,0,true
0.9.6,3,1,0,0,0,0,0,2,94,2,2,0,false
0.9.0,27,11,12,0,0,5,1,13,45,2,8,3,false
0.9.0,3,1,0,0,0,0,0,1,45,2,4,0,false
0.9.6,3,1,0,0,0,0,0,1,168,2,2,1,false
0.9.6,3,1,1,0,0,0,0,0,78,2,2,0,false
0.9.0,4,2,0,0,0,0,0,3,0,1,5,1,false
0.9.0,1,1,0,0,0,0,1,0,45,3,8,0,false
0.9.6,3,3,0,0,0,1,1,0,185,1,2,0,false
0.9.6,5,1,1,0,0,1,2,3,185,3,6,1,true
0.9.0,3,1,0,0,0,1,0,0,45,1,4,0,false
0.9.0,3,1,0,0,0,0,0,1,37,2,4,0,false
0.9.6,4,1,1,0,0,1,0,2,168,1,2,1,false
0.9.0,4,2,1,0,0,0,2,1,45,3,8,0,false
0.9.6,3,1,0,1,0,1,3,0,94,2,2,0,false
0.9.0,60,3,6,1,0,1,1,4,45,4,8,25,false
0.9.6,3,1,0,0,0,1,0,0,185,1,1,0,false
0.9.0,4,2,0,0,0,2,4,0,45,2,6,0,false
0.9.0,3,1,0,0,0,1,0,0,37,1,2,0,false
0.9.0,3,1,0,0,0,1,0,0,0,1,4,0,false
0.9.6,10,6,5,0,0,1,32,5,185,4,13,5,true
0.9.0,3,1,0,0,0,1,0,1,45,2,4,0,false
0.9.6,3,1,0,0,0,0,0,0,168,1,1,0,false
0.9.0,8,3,1,0,0,0,0,3,37,1,2,1,false
0.9.6,3,1,0,0,0,1,1,0,185,2,4,0,false
0.9.6,11,5,4,0,0,1,2,21,185,3,9,5,false
0.9.6,3,1,0,0,0,1,0,3,185,2,2,0,false
0.9.6,3,1,0,0,0,1,0,0,168,1,1,2,false
0.9.0,3,1,0,0,0,0,0,0,0,1,4,0,false
0.9.0,3,1,0,0,0,0,3,0,0,1,7,0,false
0.9.6,8,3,1,0,1,0,3,0,185,2,2,0,true
0.9.6,3,1,0,0,0,1,0,1,168,1,1,1,false
0.9.6,3,2,0,0,0,0,0,1,185,3,10,0,false
0.9.6,5,2,1,0,0,1,18,2,185,3,9,0,false
0.9.6,3,1,0,0,0,1,0,0,83,2,2,0,false
0.9.0,7,5,1,0,0,0,0,1,0,2,9,0,false
0.9.6,3,1,0,0,0,1,0,0,168,3,5,0,false
0.9.6,3,1,0,0,0,1,0,0,185,4,19,0,true
0.9.0,8,5,1,0,0,4,0,1,37,1,2,1,false
0.9.0,10,7,3,0,0,4,2,0,45,2,6,1,false
0.9.6,16,5,5,0,0,1,1,3,168,1,1,1,false
0.9.0,3,1,0,0,0,1,0,0,45,2,7,0,false
0.9.0,12,8,5,0,0,1,2,3,45,3,13,0,false
0.9.0,3,1,0,0,0,0,0,0,0,1,5,0,false
0.9.0,2,1,0,0,0,0,0,0,37,2,2,0,false
0.9.0,3,1,0,0,0,1,2,0,45,1,4,0,false
0.9.0,12,6,3,0,0,1,1,2,45,3,10,0,false
0.9.6,3,1,0,0,0,1,0,2,185,3,10,0,false
0.9.6,3,1,1,0,0,0,0,0,0,1,1,0,false
0.9.6,1,1,0,0,0,0,0,0,185,2,5,0,false
0.9.0,2,1,0,0,0,0,0,0,37,2,2,0,false
0.9.0,3,1,0,0,0,0,0,0,0,1,6,0,false
0.9.0,3,1,0,0,0,1,0,0,0,2,9,0,false
0.9.0,34,12,0,0,0,10,0,10,37,1,2,0,false
0.9.6,11,7,4,0,0,1,4,4,185,4,14,0,true
0.9.6,1,1,0,0,0,0,0,0,185,2,5,0,false
0.9.6,3,1,1,0,0,0,2,0,185,4,13,0,true
0.9.6,3,1,0,0,0,1,0,0,185,1,1,0,false
0.9.6,3,2,0,0,0,1,0,0,185,2,2,0,false
0.9.6,3,1,0,0,0,0,0,0,168,3,5,0,false
0.9.6,10,6,4,0,0,1,2,2,168,1,1,0,false
0.9.0,4,1,0,0,0,0,0,1,37,3,6,0,false
0.9.0,3,1,0,0,0,1,0,0,0,1,4,0,false
0.9.0,3,1,0,0,0,1,0,0,45,3,13,0,false
0.9.0,4,3,1,0,0,0,3,2,0,2,9,0,false
0.9.6,3,1,0,0,0,1,1,0,185,2,5,0,false
0.9.0,8,2,3,0,0,1,1,5,45,1,5,1,false
0.9.0,18,15,3,0,0,2,1,4,37,2,6,2,false
0.9.0,1,1,0,0,0,0,1,0,45,1,4,0,false
0.9.6,3,1,0,0,0,0,0,1,168,1,1,0,false
0.9.0,3,1,0,0,0,0,1,1,45,3,5,0,false
0.9.6,1,1,0,0,0,0,7,0,185,2,2,0,true
0.9.0,1,1,0,0,0,0,2,0,45,2,5,0,false
0.9.6,1,1,0,0,0,0,0,0,185,2,5,0,false
0.9.0,5,2,1,0,0,2,12,2,45,4,9,0,false
0.9.0,9,2,0,0,1,1,1,2,45,3,7,1,false
0.9.0,4,3,1,0,0,0,1,3,0,2,9,0,false
0.9.6,3,2,0,0,0,1,6,0,185,4,14,0,true
0.9.0,5,3,1,0,0,1,2,0,45,2,8,0,false
0.9.0,3,1,0,0,0,1,0,0,45,2,5,0,false
0.9.0,3,1,0,0,0,1,0,0,0,1,4,0,false
0.9.0,3,1,1,0,0,0,0,0,37,2,2,0,false
0.9.0,6,1,4,0,0,0,1,0,37,2,6,0,false
0.9.6,5,3,0,0,0,0,0,1,185,3,6,0,true
0.9.6,4,2,2,0,0,0,1,0,168,1,1,0,false
0.9.0,3,1,0,0,0,1,0,1,37,2,4,0,false
0.9.0,3,1,0,0,0,1,0,0,37,2,3,0,false
0.9.6,8,3,2,0,0,0,0,2,168,2,2,0,false
0.9.6,13,5,1,0,1,2,0,5,185,1,1,3,false
0.9.0,3,1,1,0,0,0,0,0,37,1,2,0,false
0.9.6,3,1,0,0,0,1,0,0,185,1,1,0,false
0.9.6,6,4,0,0,0,3,2,0,94,1,1,0,false
0.9.6,3,1,0,0,0,1,0,0,168,1,1,0,false
0.9.0,3,1,0,0,0,0,0,0,0,1,5,0,false
0.9.0,4,2,0,0,0,0,0,1,37,2,2,0,false
0.9.0,3,1,0,0,0,0,0,1,37,2,3,1,false
0.9.0,27,1,6,0,0,0,1,3,45,4,8,16,false
0.9.6,3,2,0,0,0,1,2,0,168,2,7,0,false
0.9.0,7,2,1,2,0,1,0,2,45,2,7,0,false
0.9.0,1,1,0,0,0,0,0,0,45,3,8,0,false
0.9.0,8,1,2,0,0,0,1,0,45,1,3,5,false
0.9.0,3,1,0,0,0,0,0,1,37,2,6,0,false
0.9.0,25,7,4,0,1,2,2,2,45,3,8,1,false
0.9.0,3,2,1,0,0,0,0,0,6,1,1,0,false
0.9.0,3,1,0,0,0,1,0,0,0,1,6,0,false
0.9.0,3,1,1,0,0,0,0,0,45,2,5,0,false
0.9.6,3,1,0,0,0,1,1,1,168,2,2,0,false
0.9.0,6,3,1,0,0,3,0,0,37,3,6,0,false
0.9.6,3,1,0,0,0,1,0,0,185,1,1,0,false
0.9.0,3,1,0,1,0,1,4,0,0,1,6,0,false
0.9.6,3,1,0,0,0,1,0,0,168,3,5,0,false
0.9.0,5,1,1,0,0,1,0,3,45,3,11,2,false
0.9.0,1,1,0,0,0,0,1,0,37,2,3,0,false
0.9.0,2,1,0,0,0,0,0,0,37,2,4,0,false
0.9.0,3,5,0,0,0,1,0,0,37,2,6,0,false
0.9.0,7,5,0,0,0,5,0,0,37,2,2,0,false
0.9.6,3,1,0,0,0,0,0,1,185,1,3,0,false
0.9.0,3,1,0,0,0,0,0,0,45,2,5,0,false
0.9.0,3,1,0,0,0,0,1,1,45,3,10,0,false
0.9.0,3,1,1,0,0,0,0,0,2,1,1,0,false
0.9.0,3,2,0,0,0,1,0,0,37,2,6,0,false
0.9.0,3,1,0,0,0,1,0,0,0,1,6,0,false
0.9.6,3,1,1,0,0,0,2,0,185,2,4,0,false
0.9.0,3,1,0,0,0,0,0,0,0,1,6,0,false
0.9.0,5,2,1,0,0,1,2,0,45,2,5,0,false
0.9.0,3,1,0,0,0,1,0,1,45,3,13,0,false
0.9.0,3,1,0,0,0,1,0,0,37,2,3,0,false
0.9.6,8,2,0,1,1,2,2,1,185,4,5,2,false
0.9.0,3,1,0,0,0,1,1,2,45,2,8,0,false
0.9.0,3,1,0,0,0,1,0,0,0,1,5,0,false
0.9.0,1,1,0,0,0,0,18,0,45,2,5,0,false
0.9.0,3,1,1,0,0,0,2,0,0,2,9,0,false
0.9.0,3,1,0,0,0,1,0,3,45,2,7,0,false
0.9.0,4,1,0,0,0,0,0,2,37,3,6,0,false
0.9.0,44,13,4,3,0,1,1,0,45,1,4,4,false
0.9.6,4,2,0,1,0,1,0,0,94,1,1,0,false
0.9.0,4,2,1,0,0,0,5,0,45,2,7,0,false
0.9.6,4,1,0,0,0,0,0,2,185,3,10,0,false
0.9.6,4,2,0,0,0,1,0,0,94,1,1,0,false
0.9.0,3,1,0,0,0,1,2,1,37,3,6,0,false
0.9.6,3,1,0,0,0,1,1,0,168,2,7,0,false
0.9.6,8,2,0,0,1,0,0,2,185,2,2,1,true
0.9.6,3,1,0,0,0,1,0,0,168,2,2,0,false
0.9.6,3,1,0,0,0,1,1,0,185,2,4,0,false
0.9.0,4,1,0,0,0,0,1,2,45,3,13,0,false
0.9.6,14,7,7,0,0,2,0,2,168,1,1,0,false
0.9.0,3,1,0,0,0,1,1,0,37,1,2,0,false
0.9.6,3,1,0,0,0,1,0,2,168,1,1,0,false
0.9.0,8,3,2,0,0,2,1,0,37,2,8,1,false
0.9.6,2,1,0,0,0,0,1,0,33,3,5,0,false
0.9.6,3,1,0,0,0,1,0,0,168,3,3,0,false
0.9.0,14,4,3,0,0,0,31,3,45,2,7,2,false
0.9.6,3,1,0,0,0,1,0,0,168,1,1,0,false
0.9.6,3,1,0,1,0,1,4,1,168,1,1,2,false
0.9.6,5,2,2,4,0,1,0,0,185,4,7,1,false
0.9.6,3,1,0,0,0,0,0,0,185,2,4,0,false
0.9.6,4,2,1,0,0,0,1,1,185,1,2,0,false
0.9.6,3,1,0,0,0,0,0,0,168,3,5,0,false
0.9.6,4,1,1,0,0,0,0,0,168,2,7,0,false
0.9.0,4,1,0,0,0,1,0,0,45,2,5,0,false
0.9.0,1,1,0,0,0,0,1,0,37,1,2,0,false
0.9.0,3,1,0,0,0,1,0,0,45,2,5,0,false
0.9.6,3,1,0,0,0,1,0,1,185,3,10,0,false
0.9.6,3,1,0,0,0,1,0,1,168,1,1,0,false
0.9.0,3,1,0,0,0,1,0,0,45,2,4,0,false
0.9.0,4,1,1,0,0,0,0,1,45,3,6,0,false
0.9.6,3,1,0,0,0,1,0,0,185,1,1,0,false
0.9.6,3,1,1,0,0,0,0,0,185,1,2,0,false
0.9.0,3,1,0,0,0,1,1,0,45,3,5,0,false
0.9.0,3,1,0,0,0,1,0,0,0,1,5,0,false
0.9.6,1,1,0,0,0,0,1,0,185,2,2,0,true
0.9.6,1,1,0,0,0,0,1,0,185,2,4,0,false
0.9.0,16,10,2,2,0,10,0,4,45,3,8,5,false
0.9.6,3,1,0,0,0,1,0,0,94,2,2,0,false
0.9.0,10,2,2,0,1,1,0,9,45,2,7,4,false
0.9.6,3,1,0,0,0,1,0,1,168,2,3,0,false
0.9.0,12,1,1,0,0,1,1,1,45,2,6,31,false
0.9.0,3,1,0,0,0,1,0,0,0,1,4,0,false
0.9.6,3,1,0,0,0,1,0,0,185,2,4,0,false
0.9.6,6,2,2,0,0,0,3,1,185,1,1,0,false
0.9.0,11,12,2,0,0,2,2,2,45,3,10,2,false
0.9.6,7,2,4,0,0,0,4,1,185,4,14,0,true
0.9.0,1,1,0,0,0,0,0,0,45,1,4,0,false
0.9.0,3,1,0,0,0,0,0,1,0,2,9,0,false
0.9.0,1,1,0,0,0,0,0,0,45,3,8,0,false
0.9.0,3,1,0,0,0,1,0,6,45,2,7,0,false
0.9.0,3,2,0,0,0,1,0,0,0,1,5,0,false
0.9.0,3,1,1,0,0,0,0,0,45,1,3,0,false
0.9.6,19,1,1,0,0,1,4,0,185,2,2,8,false
0.9.0,4,2,3,0,0,0,0,0,45,1,5,0,false
0.9.0,3,1,1,0,0,0,0,0,45,2,5,0,false
0.9.0,3,1,0,0,0,0,0,0,0,1,6,0,false
0.9.6,34,11,10,0,2,0,1,1,168,1,1,6,false
0.9.0,3,1,0,0,0,1,0,0,37,2,3,0,false
0.9.0,4,2,2,0,0,0,1,0,37,2,3,0,false
0.9.6,22,6,7,4,1,3,1,4,185,1,2,4,false
0.9.0,3,1,0,0,0,1,0,0,0,1,4,0,false
0.9.6,10,3,1,0,1,1,1,3,185,3,10,3,true
0.9.0,7,4,4,0,0,2,2,1,37,1,2,3,false
0.9.6,3,1,0,0,0,1,0,0,168,3,6,0,false
0.9.0,2,1,0,0,0,0,1,0,45,2,6,0,false
0.9.6,30,7,7,0,4,1,1,6,168,2,7,5,false
0.9.6,3,1,0,0,0,0,0,0,185,1,1,0,false
0.9.0,4,1,1,0,0,1,0,0,45,1,3,0,false
0.9.0,1,1,0,0,0,0,2,0,37,2,2,0,false
0.9.6,4,1,0,0,0,0,0,1,94,1,1,0,false
0.9.6,3,1,0,0,0,0,0,1,168,2,3,0,false
0.9.0,3,1,0,0,0,0,0,1,45,2,4,0,false
0.9.6,3,1,0,0,0,0,0,0,185,2,4,0,false
0.9.6,3,1,0,0,0,1,0,0,185,2,5,0,false
0.9.0,3,1,0,0,0,1,0,0,37,2,2,0,false
0.9.6,4,1,0,0,0,0,0,1,185,3,4,0,false
0.9.0,3,2,0,0,0,1,2,0,45,2,7,0,false
0.9.6,5,1,1,0,0,1,0,1,168,1,1,0,false
0.9.6,4,3,1,0,0,1,0,0,168,1,1,1,false
0.9.0,9,3,0,0,1,1,0,2,45,2,5,1,false
0.9.6,8,9,1,0,0,1,2,0,185,4,16,0,false
0.9.0,3,1,0,0,0,1,2,0,45,3,11,0,false
0.9.0,3,2,0,0,0,0,0,1,37,2,3,0,false
0.9.0,30,10,1,0,0,1,0,10,37,2,3,0,false
0.9.0,5,3,1,0,0,1,1,4,45,3,8,2,false
0.9.6,3,1,0,0,0,0,0,0,185,2,4,0,false
0.9.0,1,1,0,0,0,0,0,0,45,3,8,0,false
0.9.6,4,2,1,1,0,0,0,1,168,1,2,0,false
0.9.0,5,1,2,0,0,0,0,0,45,2,6,0,false
0.9.6,27,7,6,0,1,2,1,4,185,1,2,8,false
0.9.6,3,2,0,0,0,0,2,2,168,2,5,2,false
0.9.6,3,1,0,0,0,1,4,0,168,1,1,2,false
0.9.6,4,2,0,0,0,2,2,1,168,2,5,0,false
0.9.0,10,4,0,0,1,0,2,3,45,3,11,0,false
0.9.6,3,1,0,0,0,1,0,0,168,1,4,1,false
0.9.0,3,1,0,0,0,1,0,0,45,2,7,0,false
0.9.0,4,2,0,0,0,2,15,1,45,2,6,0,false
0.9.6,8,2,0,0,1,1,0,2,185,2,2,1,true
0.9.6,3,1,0,0,0,0,0,0,185,2,5,0,false
0.9.6,6,2,3,0,0,0,0,1,168,2,5,2,false
0.9.6,13,4,1,0,1,1,1,2,185,4,5,1,false
0.9.0,3,1,0,0,0,1,7,0,37,2,2,0,false
0.9.6,9,6,4,0,0,3,0,3,168,2,5,3,false
0.9.0,1,1,0,0,0,0,0,0,45,1,4,0,false
0.9.0,3,1,0,0,0,1,0,2,45,2,7,0,false
0.9.0,3,1,0,0,0,0,0,0,0,1,6,0,false
0.9.6,3,2,0,0,0,0,1,0,185,4,19,0,true
0.9.0,3,2,1,0,0,0,0,1,0,2,6,0,false
0.9.0,16,3,6,0,1,1,0,20,45,2,7,8,false
0.9.0,3,1,0,0,0,1,0,0,0,1,4,0,false
0.9.0,3,1,0,0,0,1,0,0,0,1,5,0,false
0.9.6,9,6,3,0,0,2,2,3,185,4,13,1,true
0.9.0,3,1,1,0,0,0,0,0,45,3,7,0,false
0.9.6,3,1,0,0,0,1,11,1,185,3,9,0,false
0.9.6,3,1,0,0,0,1,0,0,168,1,3,0,false
0.9.0,11,2,3,0,1,0,0,3,37,2,3,0,false
0.9.0,12,4,0,0,0,3,2,0,37,2,3,0,false
0.9.0,3,1,1,0,0,0,1,0,37,2,6,0,false
0.9.0,7,3,3,0,0,1,2,3,0,1,7,0,false
0.9.0,2,1,0,0,0,0,0,0,45,1,4,0,false
0.9.0,1,1,0,0,0,0,3,0,45,1,4,0,false
0.9.0,7,5,1,0,0,3,3,2,37,2,5,0,false
0.9.0,10,9,1,1,0,0,0,5,45,1,4,2,false
0.9.6,3,1,0,0,0,1,0,0,185,1,1,0,false
0.9.0,3,1,0,0,0,1,4,0,45,3,13,0,false
0.9.0,5,3,1,0,0,2,0,2,37,2,6,0,false
0.9.0,3,1,0,0,0,1,0,1,45,3,13,0,false
0.9.0,3,1,0,0,0,1,0,1,37,2,4,0,false
0.9.0,9,5,3,0,0,3,1,0,45,3,13,4,false
0.9.6,3,1,0,0,0,0,0,0,168,3,5,0,false
0.9.6,4,2,0,1,0,1,0,0,94,1,1,0,false
0.9.0,5,1,3,0,0,0,2,0,37,2,3,0,false
0.9.0,3,1,0,0,0,1,0,0,45,3,7,0,false
0.9.0,3,1,0,0,0,1,0,0,2,1,1,0,false
0.9.0,3,1,0,0,0,1,0,0,0,1,4,0,false
0.9.6,6,3,2,0,0,0,0,1,168,1,1,0,false
0.9.0,2,1,0,0,0,0,0,0,45,2,8,0,false
0.9.0,3,1,0,0,0,1,5,1,45,3,11,0,false
0.9.0,4,1,0,0,0,0,0,2,45,3,13,0,false
0.9.6,3,1,0,0,0,1,0,0,0,1,1,0,false
0.9.6,3,1,0,0,0,1,1,0,185,4,16,0,false
0.9.0,8,2,0,0,1,2,1,0,37,2,3,0,false
0.9.6,3,1,0,0,0,1,0,0,168,1,1,0,false
0.9.0,3,2,0,0,0,1,0,0,45,3,13,0,false
0.9.0,3,1,0,0,0,1,0,0,0,1,4,0,false
0.9.0,3,1,0,0,0,1,1,6,45,3,11,0,false
0.9.6,3,1,0,0,0,1,0,2,185,2,2,0,false
0.9.6,16,5,1,0,1,1,1,6,185,4,14,0,true
0.9.6,9,3,1,0,0,2,0,0,168,3,5,0,false
0.9.6,14,9,2,0,0,0,0,2,185,1,3,1,true
0.9.0,3,1,0,0,0,1,0,0,45,1,7,0,false
0.9.6,3,1,0,0,0,1,1,0,185,2,5,0,false
0.9.6,3,1,0,0,0,0,0,0,185,1,1,0,false
0.9.6,7,2,2,0,0,2,0,0,168,2,5,1,true
0.9.6,1,1,0,0,0,0,0,0,185,2,5,0,false
0.9.0,3,1,0,0,0,1,0,0,45,1,3,0,false
0.9.6,3,1,0,0,0,0,0,0,168,3,5,0,false
0.9.0,2,1,0,0,0,0,0,0,0,1,5,0,false
0.9.6,9,1,1,0,1,1,0,3,168,2,2,1,false
0.9.6,3,1,0,0,0,1,0,0,185,2,4,0,false
0.9.0,3,1,0,0,0,0,0,0,45,3,7,0,false
0.9.0,4,1,0,0,0,0,0,2,45,3,13,0,false
0.9.0,21,5,3,0,3,0,1,2,37,1,2,3,false
0.9.0,19,8,6,0,1,5,3,3,37,2,4,1,false
0.9.0,9,3,2,0,0,0,2,4,37,2,5,3,false
0.9.6,10,9,2,0,0,4,3,1,168,1,1,0,false
0.9.6,3,1,0,0,0,1,0,0,185,2,5,0,false
0.9.6,3,1,1,0,0,0,2,0,185,2,4,0,false
0.9.0,3,1,1,0,0,0,1,0,45,3,10,0,false
0.9.0,9,3,0,0,1,1,0,2,45,1,4,1,false
0.9.6,3,1,0,0,0,1,0,0,168,3,5,0,false
0.9.0,8,3,1,1,0,3,0,0,37,1,2,0,false
0.9.0,8,2,0,0,1,1,1,2,45,3,7,1,false
0.9.0,20,9,6,0,1,1,3,9,45,3,13,2,false
0.9.6,3,1,1,0,0,0,0,0,185,4,13,0,true
0.9.0,3,1,0,0,0,1,0,0,37,2,4,0,false
0.9.6,3,1,0,0,0,1,0,0,185,1,1,0,false
0.9.0,11,3,2,0,0,1,0,0,45,1,4,0,false
0.9.0,4,1,1,1,0,1,2,1,37,2,3,3,false
0.9.0,5,1,3,0,0,0,0,0,45,2,4,0,false
0.9.0,4,1,1,0,0,0,0,1,45,3,11,0,false
0.9.6,4,1,1,0,0,1,0,1,185,2,2,0,true
0.9.6,4,3,1,0,0,1,0,0,168,1,1,0,false
0.9.6,13,4,4,0,0,1,0,1,94,1,1,0,false
0.9.0,17,4,8,0,0,1,3,25,45,2,8,1,false
0.9.6,3,1,0,0,0,1,0,0,185,1,1,0,false
0.9.0,6,3,2,0,0,1,0,2,0,1,8,0,false
0.9.6,3,1,1,0,0,0,1,0,168,1,3,0,false
0.9.0,3,1,1,0,0,0,0,0,37,1,2,0,false
0.9.6,1,1,0,0,0,0,0,0,185,2,5,0,false
0.9.6,3,1,0,0,0,0,0,0,168,2,2,0,false
0.9.0,17,12,3,0,0,0,1,1,45,3,11,1,false
0.9.6,3,1,0,0,0,1,0,0,185,2,3,0,true
0.9.0,3,1,0,0,0,1,17,3,45,2,8,0,false
0.9.0,3,1,0,0,0,1,1,2,37,2,4,1,false
0.9.0,4,2,0,0,0,2,0,2,45,1,4,0,false
0.9.6,3,1,0,0,0,1,0,0,168,2,3,1,false
0.9.0,3,1,0,0,0,0,0,0,0,1,6,0,false
0.9.6,1,1,0,0,0,0,1,0,185,2,2,0,false
0.9.0,3,1,0,0,0,1,0,0,0,1,4,0,false
0.9.6,4,2,0,0,0,0,0,0,168,3,3,0,false
0.9.0,48,16,21,0,4,1,0,3,37,2,3,8,false
0.9.6,3,1,0,0,0,1,0,0,168,3,3,0,false
0.9.6,5,1,1,0,0,1,1,2,185,2,2,1,true
0.9.0,3,1,0,0,0,0,0,1,45,2,7,0,false
0.9.0,18,17,6,0,0,6,12,14,45,3,13,3,false
0.9.6,2,1,0,0,0,0,0,0,185,1,1,0,false
0.9.6,3,1,0,0,0,0,0,0,168,3,5,0,false
0.9.6,3,1,0,0,0,0,0,1,168,2,2,0,false
0.9.0,3,1,0,0,0,1,0,0,0,2,9,0,false
0.9.6,4,1,1,0,0,0,0,1,185,4,19,0,true
0.9.6,3,1,0,0,0,1,0,0,168,1,1,0,false
0.9.6,24,12,3,0,1,8,1,3,185,3,4,4,false
0.9.0,3,2,0,0,0,1,4,0,37,2,6,0,false
0.9.0,4,2,0,0,0,2,0,1,37,2,3,0,false
0.9.0,1,1,0,0,0,0,2,0,45,1,4,0,false
0.9.0,37,21,0,0,0,12,1,0,37,2,2,1,false
0.9.0,9,3,0,0,1,2,0,2,45,1,4,1,false
0.9.0,4,1,0,0,0,1,1,0,45,2,6,0,false
0.9.0,3,1,0,0,0,1,4,0,45,3,10,0,false
0.9.0,3,1,0,0,0,0,0,0,0,1,6,0,false
0.9.6,1,1,0,0,0,0,1,0,185,1,2,0,false
0.9.6,11,5,0,0,1,3,1,7,185,4,14,4,true
0.9.6,3,1,0,0,0,1,0,0,185,1,1,0,false
0.9.0,11,1,9,0,0,0,0,0,45,2,4,0,false
0.9.6,16,7,2,0,0,2,4,1,185,2,3,0,true
0.9.0,33,13,9,0,0,5,1,6,45,3,10,2,false
0.9.0,2,1,0,0,0,0,0,0,37,2,3,0,false
0.9.0,3,3,0,0,0,1,5,2,45,2,8,4,false
0.9.0,3,1,0,0,0,0,0,1,0,1,4,0,false
0.9.6,3,1,0,0,0,1,15,0,185,2,5,0,false
0.9.6,3,1,0,0,0,1,0,0,168,1,2,0,false
0.9.0,3,1,1,0,0,0,0,0,45,2,5,0,false
0.9.0,5,3,0,0,0,3,3,0,45,2,6,0,false
0.9.6,14,6,2,0,0,2,1,1,185,2,2,2,false
0.9.6,15,5,4,0,0,1,1,11,185,3,6,4,true
0.9.6,3,1,0,0,0,1,0,2,168,1,1,0,false
0.9.6,5,2,0,0,0,2,0,1,185,4,19,0,true
0.9.0,18,7,1,0,1,3,1,3,45,3,11,3,false
0.9.0,3,1,0,0,0,0,0,1,37,2,4,0,false
0.9.6,3,1,0,0,0,0,0,0,168,3,5,0,false
0.9.6,3,1,0,0,0,0,0,0,185,2,4,0,false
0.9.0,3,1,0,0,0,1,0,2,45,2,7,0,false
0.9.0,6,4,3,0,0,0,2,2,45,3,11,0,false
0.9.6,1,1,0,0,0,0,0,0,185,2,5,0,false
0.9.0,6,3,1,0,0,0,3,1,45,3,11,0,false
0.9.0,3,1,0,0,0,1,0,0,37,2,4,0,false
0.9.0,4,2,1,1,0,0,1,1,45,3,8,2,false
0.9.6,1,1,0,0,0,0,1,0,168,1,1,0,true
0.9.0,5,1,2,0,0,0,7,1,45,1,4,0,false
0.9.0,3,1,0,0,0,1,0,1,37,1,2,0,false
0.9.6,1,1,0,0,0,0,1,0,168,1,1,0,true
0.9.6,3,1,0,0,0,0,0,0,185,2,4,0,false
0.9.6,3,1,0,0,0,1,0,1,185,2,2,0,true
0.9.0,4,2,1,0,0,1,5,1,45,3,8,0,false
0.9.0,3,1,0,0,0,1,0,1,45,2,5,0,false
0.9.0,3,1,0,0,0,0,0,0,45,3,11,0,false
0.9.0,3,1,0,0,0,1,1,1,45,3,7,1,false
0.9.6,3,1,0,0,0,1,0,1,185,4,16,0,false
0.9.0,1,1,0,0,0,0,2,0,45,3,8,0,false
0.9.0,3,1,1,0,0,0,0,0,37,2,2,0,false
0.9.0,3,1,0,0,0,1,0,0,45,2,6,0,false
0.9.0,24,1,5,0,0,0,1,1,45,4,8,11,false
0.9.0,15,4,4,0,1,2,0,10,45,2,6,0,false
0.9.6,10,3,4,0,0,1,2,2,168,2,7,1,false
0.9.6,59,44,16,2,0,3,0,26,185,2,2,6,true
0.9.0,1,1,0,0,0,0,0,0,45,2,5,0,false
0.9.0,8,2,0,0,1,1,0,2,45,3,7,1,false
0.9.0,5,3,0,1,0,3,2,0,37,2,6,0,false
0.9.0,5,4,1,0,0,0,0,1,37,1,2,0,false
0.9.0,1,1,0,0,0,0,1,0,0,1,4,0,false
0.9.0,10,2,2,1,1,1,2,1,45,3,10,1,false
0.9.0,3,1,0,0,0,0,0,0,0,1,7,0,false
0.9.0,6,3,3,0,0,1,2,0,37,2,6,0,false
0.9.0,3,1,0,0,0,1,0,3,37,3,9,0,false
0.9.0,3,1,0,0,0,1,0,1,45,2,4,0,false
0.9.0,3,1,0,0,0,0,0,0,37,2,3,0,false
0.9.0,3,1,0,0,0,1,0,0,45,3,13,0,false
0.9.0,3,1,0,0,0,1,0,1,37,2,4,0,false
0.9.0,7,2,1,0,0,2,0,0,37,2,3,0,false
0.9.6,10,6,2,0,0,6,3,7,185,3,9,1,false
0.9.0,21,6,6,0,1,0,1,11,45,2,7,0,false
0.9.6,5,2,1,1,0,0,0,1,185,2,2,0,false
0.9.6,32,22,14,0,0,3,0,12,185,2,3,3,true
0.9.0,3,1,1,0,0,0,0,0,37,2,3,0,false
0.9.6,23,11,7,0,0,4,1,2,94,2,2,1,false
0.9.0,3,1,0,0,0,1,76,0,45,3,10,0,false
0.9.0,12,4,1,0,1,1,0,1,37,2,3,1,false
0.9.0,1,1,0,0,0,0,1,0,45,3,8,0,false
0.9.0,3,1,0,0,0,1,1,1,0,1,6,0,false
0.9.6,1,1,0,0,0,0,1,0,185,1,1,0,false
0.9.6,6,3,1,0,0,3,0,1,168,1,1,0,false
0.9.0,3,1,0,0,0,0,0,0,0,1,6,0,false
0.9.0,4,2,1,0,0,1,4,1,45,2,6,2,false
0.9.6,1,1,0,0,0,0,0,0,185,2,4,0,false
0.9.6,3,1,0,0,0,1,0,0,168,2,6,0,false
0.9.6,18,3,5,0,0,0,1,1,0,2,2,4,false
0.9.6,4,1,1,0,0,0,0,2,168,2,6,0,false
0.9.6,4,1,2,0,0,0,1,0,185,4,19,0,true
0.9.6,3,1,0,0,0,0,2,1,185,4,14,0,true
0.9.0,3,1,0,0,0,1,4,0,0,1,5,0,false
0.9.0,47,21,2,0,0,0,0,2,37,2,3,4,false
0.9.6,3,1,0,0,0,0,0,0,185,2,5,0,false
0.9.0,2,1,0,0,0,0,0,0,45,2,7,0,false
0.9.6,7,4,2,0,0,1,9,2,185,4,13,1,true
0.9.6,3,1,0,0,0,1,0,0,168,3,3,0,false
0.9.6,8,2,0,0,1,0,0,2,185,2,2,1,true
0.9.0,3,1,0,0,0,1,0,0,0,1,4,0,false
0.9.6,1,1,0,0,0,0,0,0,185,2,5,0,false
0.9.6,3,1,0,0,0,1,1,0,168,2,7,0,false
0.9.6,3,1,0,0,0,1,0,0,0,1,1,0,false
0.9.6,12,14,2,0,0,1,3,2,185,4,19,1,true
0.9.6,8,2,0,0,1,0,0,2,185,2,2,1,true
0.9.6,19,8,8,0,0,3,1,2,168,1,4,7,false
0.9.6,3,1,0,0,0,1,0,0,168,3,5,0,false
0.9.0,10,2,0,0,1,1,0,2,37,3,6,0,false
0.9.0,3,1,0,0,0,1,2,2,45,2,7,0,false
0.9.0,4,2,0,0,0,0,0,2,45,3,11,0,false
0.9.0,6,2,1,1,0,1,0,2,45,2,6,0,false
0.9.6,30,15,15,1,0,4,3,11,168,2,7,0,false
0.9.6,3,1,0,0,0,1,0,0,185,2,2,0,true
0.9.6,3,1,1,0,0,0,0,1,168,3,3,0,false
0.9.0,3,2,0,0,0,1,0,0,37,1,2,0,false
0.9.0,3,1,0,0,0,1,3,1,37,2,6,0,false
0.9.0,4,1,1,0,0,0,2,1,45,3,10,0,false
0.9.0,3,1,0,0,0,1,0,0,45,2,6,0,false
0.9.0,3,1,0,0,0,1,0,0,45,3,6,0,false
0.9.0,3,1,0,0,0,0,5,1,45,3,10,0,false
0.9.0,3,1,0,0,0,1,16,1,45,3,10,0,false
0.9.6,3,1,1,0,0,0,0,0,185,2,5,0,false
0.9.0,1,1,0,0,0,0,0,0,45,3,8,0,false
0.9.6,3,1,1,0,0,0,0,0,185,2,2,0,false
0.9.0,11,5,10,0,0,2,0,6,45,2,6,0,false
0.9.6,5,5,0,0,0,3,2,2,168,1,3,0,false
0.9.6,9,3,0,0,1,2,0,2,185,1,1,1,false
0.9.6,3,1,0,0,0,1,0,1,168,2,3,0,false
0.9.6,1,1,0,0,0,0,0,0,185,2,4,0,false
0.9.6,75,17,17,0,5,6,4,15,185,2,2,0,false
0.9.6,3,1,0,0,0,1,0,0,168,1,1,0,false
0.9.0,2,1,0,0,0,0,1,0,45,2,6,0,false
0.9.6,3,1,0,0,0,0,0,0,185,1,1,0,false
0.9.6,3,1,0,0,0,0,0,1,94,1,1,1,false
0.9.6,3,1,0,0,0,1,0,0,78,2,2,0,false
0.9.0,3,1,0,0,0,1,0,1,45,2,5,0,false
0.9.0,3,1,0,0,0,0,0,0,0,1,6,0,false
0.9.6,3,1,0,0,0,1,0,0,168,2,5,0,false
0.9.6,10,1,1,0,0,1,0,0,185,1,1,0,false
0.9.6,3,1,0,0,0,1,3,1,168,2,2,0,false
0.9.0,3,1,0,0,0,1,0,0,0,1,4,0,false
0.9.0,3,1,0,0,0,0,0,1,45,2,4,0,false
0.9.6,3,1,0,0,0,1,0,1,185,1,2,0,false
0.9.6,5,1,3,0,0,0,1,0,185,4,13,0,true
0.9.6,8,2,2,0,0,1,0,3,185,3,10,0,false
0.9.0,13,4,4,0,0,1,3,1,45,2,6,2,false
0.9.0,5,2,2,0,0,0,3,1,45,3,10,0,false
0.9.6,2,1,0,0,0,0,1,0,185,3,6,0,true
0.9.6,3,1,1,0,0,0,0,0,168,1,1,0,false
0.9.0,3,1,0,0,0,1,1,1,45,3,8,0,false
0.9.6,3,1,0,0,0,0,2,1,185,3,6,0,true
0.9.0,9,3,0,0,1,1,0,2,45,1,4,1,false
0.9.6,3,1,1,0,0,0,0,0,185,2,4,0,false
0.9.0,36,19,12,0,0,4,4,0,45,2,4,5,false
0.9.0,10,2,0,0,1,1,0,3,45,2,6,0,false
0.9.0,3,1,0,0,0,1,1,1,45,1,4,1,false
0.9.6,3,1,0,0,0,0,0,0,185,2,5,0,false
0.9.6,3,1,0,0,0,1,0,0,168,2,5,0,true
0.9.6,18,9,1,0,0,9,0,5,185,4,14,1,true
0.9.6,4,4,2,1,0,2,1,0,94,2,2,0,false
0.9.0,3,1,0,0,0,1,0,0,45,4,8,0,false
0.9.6,8,5,1,1,0,1,0,1,168,3,3,0,false
0.9.6,3,1,1,0,0,0,0,0,185,2,4,0,false
0.9.0,18,14,6,0,0,2,2,2,45,2,6,2,false
0.9.6,5,2,2,1,0,1,0,0,168,3,6,0,false
0.9.6,3,1,0,0,0,1,1,0,185,2,6,0,true
0.9.0,3,2,0,0,0,0,1,0,37,1,2,0,false
0.9.0,3,1,0,0,0,1,0,0,0,1,4,0,false
0.9.0,3,1,0,1,0,1,0,0,45,3,11,0,false
0.9.0,1,1,0,0,0,0,0,0,45,4,8,0,false
0.9.0,2,1,0,0,0,0,0,0,37,1,3,0,false
0.9.0,3,1,0,0,0,0,0,0,45,2,6,0,false
0.9.6,8,6,0,0,0,4,0,0,168,3,6,2,false
0.9.0,3,1,0,0,0,1,0,0,0,1,5,0,false
0.9.6,3,1,0,0,0,0,0,0,168,3,5,0,false
0.9.0,4,1,0,0,0,0,0,2,45,2,5,0,false
0.9.6,3,1,0,0,0,1,0,0,168,1,2,0,false
0.9.0,21,9,7,0,0,1,2,6,37,2,3,1,false
0.9.0,3,1,0,0,0,1,0,0,45,1,3,0,false
0.9.0,3,1,0,0,0,1,0,0,45,3,11,0,false
0.9.6,14,4,8,0,0,1,1,0,94,1,1,3,false
0.9.6,3,1,0,0,0,1,0,0,185,2,2,0,false
0.9.6,3,1,0,0,0,1,1,0,0,1,1,0,false
0.9.6,3,1,0,0,0,1,0,1,185,1,2,0,false
0.9.6,3,1,1,0,0,0,0,0,168,1,2,0,false
0.9.0,3,1,0,0,0,1,0,1,37,2,5,0,false
0.9.6,12,10,2,3,0,7,0,1,168,1,2,2,false
0.9.0,7,2,3,0,0,0,5,6,0,1,5,0,false
0.9.6,3,1,0,0,0,0,0,1,185,2,3,0,true
0.9.0,3,1,0,0,0,1,4,1,37,1,2,0,false
0.9.6,4,1,0,0,0,0,0,1,185,3,10,0,false
0.9.6,1,1,0,0,0,0,1,0,168,1,2,0,false
0.9.6,3,1,1,0,0,0,0,0,168,3,3,0,false
0.9.6,3,1,0,0,0,1,0,0,185,2,3,0,true
0.9.6,3,1,1,0,0,0,3,0,185,4,16,0,false
0.9.6,3,2,0,0,0,1,0,0,185,2,2,0,false
0.9.6,1,1,0,0,0,0,0,0,185,2,5,0,false
0.9.0,3,1,0,0,0,0,0,2,0,1,6,0,false
0.9.6,16,5,9,1,0,3,0,1,168,1,1,0,false
0.9.0,5,3,2,0,0,2,1,2,37,2,5,0,false
0.9.0,5,2,0,0,0,1,0,5,45,2,6,0,false
0.9.0,3,1,0,0,0,0,0,3,45,2,7,0,false
0.9.0,3,1,0,0,0,0,0,0,0,1,6,0,false
0.9.0,5,2,0,0,0,2,0,2,37,2,2,0,false
0.9.0,3,1,0,0,0,0,0,0,45,2,5,0,false
0.9.0,2,1,0,0,0,0,0,0,37,2,3,0,false
0.9.0,3,1,0,0,0,0,0,0,45,1,3,0,false
0.9.6,3,1,0,0,0,0,0,0,185,2,5,0,false
0.9.6,27,17,7,1,0,10,0,0,168,2,3,2,false
0.9.0,8,3,2,0,0,0,0,0,45,2,4,0,false
0.9.0,4,2,0,0,0,2,0,3,45,2,4,1,false
0.9.0,3,1,0,0,0,1,0,0,0,1,6,0,false
0.9.0,3,1,1,0,0,0,0,0,37,2,3,0,false
0.9.6,3,1,0,0,0,1,0,0,185,1,1,0,false
0.9.6,4,1,2,0,0,0,0,1,168,2,2,0,false
0.9.0,1,1,0,0,0,0,8,0,37,2,2,0,false
0.9.6,20,15,10,0,0,4,2,4,185,2,5,6,false
0.9.0,1,1,0,0,0,0,1,0,45,1,4,0,false
0.9.6,3,1,0,0,0,1,0,0,185,2,4,0,false
0.9.0,38,21,7,0,2,2,3,2,37,2,3,10,false
0.9.0,3,1,0,0,0,1,0,1,37,3,6,0,false
0.9.0,3,1,0,0,0,0,0,0,45,3,7,0,false
0.9.6,4,1,0,0,0,1,0,0,185,1,1,0,false
0.9.0,3,1,0,0,0,0,1,1,45,3,13,0,false
0.9.6,8,1,0,0,1,1,0,1,94,1,1,0,false
0.9.6,28,13,2,0,0,0,1,7,185,1,1,1,false
0.9.6,3,1,0,0,0,0,5,0,168,2,5,0,true
0.9.6,3,2,0,0,0,1,0,0,185,2,4,0,false
0.9.0,4,2,0,0,0,2,1,1,45,2,5,1,false
0.9.0,3,1,0,0,0,1,6,1,37,1,2,0,false
0.9.0,11,5,6,0,0,0,0,3,37,2,3,6,false
0.9.6,3,1,0,0,0,1,0,0,168,1,1,0,false
0.9.0,22,13,2,0,1,8,14,5,45,3,10,6,false
0.9.0,3,1,0,0,0,0,0,0,45,2,4,0,false
0.9.0,3,1,0,0,0,1,0,0,37,1,2,0,false
0.9.0,7,3,2,0,0,0,0,1,45,1,4,1,false
0.9.6,6,4,2,0,0,3,3,1,168,1,1,0,false
0.9.6,7,1,5,0,0,0,3,0,33,3,5,1,false
0.9.0,9,3,0,0,1,2,0,2,45,2,5,1,false
0.9.6,1,1,0,0,0,0,0,0,185,2,4,0,false
0.9.0,12,4,5,0,0,0,3,1,45,3,8,0,false
0.9.0,6,5,1,0,0,0,12,1,37,2,3,0,false
0.9.6,3,1,0,0,0,1,0,0,168,1,1,0,false
0.9.0,4,1,0,0,0,0,0,1,45,1,5,0,false
0.9.0,3,2,0,0,0,0,0,0,0,2,12,1,false
0.9.0,36,10,11,0,1,0,4,10,45,2,7,2,false
0.9.6,3,1,1,0,0,0,2,0,185,2,5,0,false
0.9.6,1,1,0,0,0,0,0,0,185,2,5,0,false
0.9.6,3,1,0,0,0,1,0,1,185,2,4,0,false
0.9.0,3,1,0,0,0,1,1,1,0,1,6,0,false
0.9.6,25,5,3,0,1,0,4,13,185,4,19,2,true
0.9.6,11,6,2,0,0,0,2,6,185,4,14,4,true
0.9.0,4,3,1,0,0,2,0,1,0,2,6,0,false
0.9.0,6,2,2,0,0,2,1,0,37,2,4,0,false
0.9.6,3,1,0,0,0,0,0,0,185,2,6,0,true
0.9.0,3,1,0,0,0,1,0,0,0,1,5,0,false
0.9.0,16,5,4,0,0,4,4,5,45,2,6,4,false
0.9.0,3,1,0,0,0,1,0,0,45,1,4,0,false
0.9.6,13,4,2,0,1,2,0,1,185,3,10,0,true
0.9.0,3,1,0,1,0,1,0,0,37,2,6,0,false
0.9.6,3,1,1,0,0,0,1,0,185,1,1,0,false
0.9.0,3,1,0,0,0,1,0,1,45,2,6,1,false
0.9.0,3,1,0,0,0,1,1,1,45,3,5,0,false
0.9.6,4,2,0,1,0,1,0,0,94,1,1,0,false
0.9.0,3,1,0,0,0,0,3,1,37,2,5,0,false
0.9.0,1,1,0,0,0,0,2,0,45,3,6,0,false
0.9.0,7,2,2,0,0,2,0,4,45,1,4,1,false
0.9.6,3,1,0,0,0,0,0,0,185,2,5,0,false
0.9.0,1,1,0,0,0,0,1,0,45,1,4,0,false
0.9.0,3,1,1,0,0,0,0,0,0,2,9,0,false
0.9.6,13,4,2,0,1,2,1,4,185,4,7,1,false
0.9.0,3,1,0,0,0,1,0,0,45,2,6,0,false
0.9.6,7,3,2,0,0,0,2,1,185,3,6,0,true
0.9.0,14,3,2,0,1,1,0,3,45,3,7,0,false
0.9.6,4,1,1,0,0,0,1,0,168,1,2,0,false
0.9.6,1,1,0,0,0,0,0,0,185,2,5,0,false
0.9.0,3,1,0,0,0,1,1,0,45,1,4,0,false
0.9.6,3,1,0,0,0,1,0,0,185,2,5,0,false
0.9.6,3,1,0,0,0,0,0,0,94,2,2,0,false
0.9.0,3,1,0,0,0,1,0,0,0,1,4,0,false
0.9.0,3,1,0,0,0,1,1,0,45,2,5,0,false
0.9.6,3,1,0,0,0,0,0,0,168,1,1,0,false
0.9.6,3,1,0,0,0,1,0,0,185,2,2,0,false
0.9.6,4,3,0,0,0,2,0,1,185,1,1,0,false
0.9.0,3,1,1,0,0,0,0,0,37,2,2,0,false
0.9.0,12,3,3,0,0,0,1,3,37,1,2,6,false
0.9.0,1,1,0,0,0,0,2,0,45,1,3,0,false
0.9.6,3,1,0,0,0,1,1,2,168,1,3,0,false
0.9.6,3,1,1,0,0,0,3,0,168,1,1,0,false
0.9.6,4,2,0,0,0,0,0,1,94,1,1,0,false
0.9.6,3,1,0,0,0,1,0,1,168,2,2,0,false
0.9.6,5,3,3,0,0,0,0,0,185,2,5,0,false
0.9.0,2,1,0,0,0,0,0,0,45,2,5,0,false
0.9.0,3,1,0,0,0,0,0,0,0,1,5,0,false
0.9.6,10,2,1,0,1,0,2,2,185,4,19,0,true
0.9.0,3,1,0,0,0,1,0,0,27,1,2,0,false
0.9.6,34,10,6,1,3,1,2,2,168,1,1,11,false
0.9.6,3,1,0,0,0,0,0,0,185,2,5,0,false
0.9.0,5,1,0,0,0,0,0,0,45,3,8,0,false
0.9.0,4,2,1,0,0,0,0,0,45,1,7,0,false
0.9.6,3,1,0,0,0,1,3,0,94,1,2,0,false
0.9.0,4,2,0,0,0,0,3,0,45,1,4,0,false
0.9.0,22,8,0,0,0,0,0,6,37,1,2,0,false
0.9.0,3,1,0,0,0,1,0,0,0,1,4,0,false
0.9.0,5,3,1,0,0,1,10,0,45,1,4,0,false
0.9.0,3,1,0,0,0,1,10,0,45,3,13,0,false
0.9.0,23,10,2,0,1,3,3,10,45,3,11,8,false
0.9.6,3,1,0,0,0,0,0,0,185,2,5,0,false
0.9.0,3,2,0,0,0,1,1,0,45,3,11,0,false
0.9.0,3,1,0,0,0,1,1,0,45,2,4,0,false
0.9.6,3,1,0,0,0,1,0,0,185,2,4,0,false
0.9.0,3,2,0,0,0,0,2,2,37,2,4,2,false
0.9.0,3,1,0,0,0,1,0,1,45,2,7,0,false
0.9.6,5,1,0,0,0,0,0,0,185,4,16,0,false
0.9.6,3,2,0,0,0,0,0,1,168,1,1,0,false
0.9.0,3,1,0,0,0,0,0,1,37,2,4,0,false
0.9.0,3,2,0,0,0,0,0,4,45,2,7,0,false
0.9.0,3,1,0,0,0,0,0,0,0,1,6,0,false
0.9.0,3,1,0,0,0,1,0,0,45,3,13,0,false
0.9.6,3,1,1,0,0,0,0,0,185,2,4,0,false
0.9.6,5,2,0,1,0,0,0,0,168,3,5,2,false
0.9.0,4,2,2,0,0,0,0,0,37,2,6,0,false
0.9.0,3,2,0,0,0,1,3,1,0,1,6,0,false
0.9.0,4,2,1,0,0,0,0,1,37,2,3,0,false
0.9.0,45,18,1,0,0,0,0,17,45,2,6,0,false
0.9.0,3,1,1,0,0,0,0,0,0,1,5,0,false
0.9.6,3,1,0,0,0,0,0,0,185,2,4,0,false
0.9.6,48,14,19,0,1,4,0,1,168,2,5,3,true
0.9.0,3,1,1,0,0,0,8,4,45,3,8,0,false
0.9.0,3,1,0,0,0,1,0,0,45,2,4,0,false
0.9.6,9,2,1,0,1,0,0,2,168,1,1,2,false
0.9.6,3,1,0,0,0,0,0,0,185,2,4,0,false
0.9.6,6,4,2,0,0,1,3,2,168,1,2,0,false
0.9.0,3,1,0,0,0,1,0,1,45,2,7,0,false
0.9.0,3,1,1,0,0,0,0,0,45,1,5,0,false
0.9.0,4,3,0,0,0,2,0,0,45,3,11,0,false
0.9.0,8,2,0,0,1,2,1,0,37,1,2,0,false
0.9.6,3,1,0,0,0,1,0,0,168,1,1,0,false
0.9.0,4,1,0,0,0,0,0,1,45,3,13,0,false
0.9.6,5,2,1,0,0,1,3,1,168,2,2,2,false
0.9.0,3,1,0,0,0,1,0,2,37,3,6,0,false
0.9.0,3,1,0,0,0,1,1,0,37,1,2,0,false
0.9.0,5,1,0,0,0,0,0,7,45,3,13,0,false
0.9.0,3,1,0,0,0,0,0,0,45,2,5,0,false
0.9.0,5,3,0,0,0,0,0,1,45,2,6,0,false
0.9.6,3,2,0,0,0,1,16,0,185,1,1,0,false
0.9.6,3,1,0,0,0,1,1,0,185,3,8,0,false
0.9.0,13,5,3,0,0,3,1,9,45,4,9,6,false
0.9.0,1,1,0,0,0,0,0,0,45,1,4,0,false
0.9.6,27,13,11,0,0,2,1,6,185,1,2,7,false
0.9.6,5,1,0,0,0,0,0,7,185,3,10,0,false
0.9.0,3,1,0,0,0,1,0,0,37,1,2,0,false
0.9.0,1,1,0,0,0,0,1,0,45,1,4,0,false
0.9.0,3,1,1,0,0,0,0,0,45,1,7,0,false
0.9.0,10,5,3,1,0,1,0,2,45,2,7,0,false
0.9.6,3,2,0,0,0,0,0,1,168,2,5,0,true
0.9.6,3,1,0,0,0,1,19,0,185,4,14,0,true
0.9.0,3,1,1,0,0,0,0,0,45,1,3,0,false
0.9.6,3,1,0,0,0,1,1,0,185,2,5,0,false
0.9.0,3,1,1,0,0,0,1,0,45,3,10,0,false
0.9.6,3,1,0,0,0,0,0,0,185,2,5,0,false
0.9.6,3,2,0,0,0,0,12,0,185,2,4,0,false
0.9.6,5,1,2,0,0,0,0,0,94,1,1,0,false
0.9.0,27,18,1,0,0,7,2,2,45,2,7,1,false
0.9.6,3,1,0,0,0,1,0,1,168,2,2,1,false
0.9.6,3,1,0,0,0,1,0,0,185,1,1,0,false
0.9.0,3,1,0,0,0,1,0,0,45,3,6,0,false
0.9.6,3,1,0,0,0,1,0,0,185,1,1,0,false
0.9.0,5,1,2,0,0,0,0,1,37,2,3,0,false
0.9.6,3,1,0,0,0,1,23,1,185,3,4,0,false
0.9.6,1,1,0,0,0,0,0,0,168,1,2,0,false
0.9.6,2,1,0,0,0,0,0,0,168,1,1,0,false
0.9.0,10,5,0,0,0,0,2,0,37,2,3,0,false
0.9.0,3,1,0,0,0,1,0,0,45,1,3,0,false
0.9.0,4,3,0,0,0,0,11,1,45,3,13,1,false
0.9.6,3,1,0,0,0,1,5,0,168,2,2,0,false
0.9.0,8,4,3,0,0,1,12,2,45,3,8,1,false
0.9.6,3,1,0,0,0,0,0,0,168,2,3,0,false
0.9.6,16,7,5,0,1,1,1,3,185,1,1,1,false
0.9.6,3,1,0,0,0,0,0,0,168,3,5,0,false
0.9.6,3,1,0,0,0,0,0,1,185,2,4,0,false
0.9.0,4,2,1,0,0,1,1,0,37,1,2,0,false
0.9.6,3,1,0,0,0,1,2,0,185,1,2,0,false
0.9.6,3,1,0,0,0,1,0,0,185,2,3,0,true
0.9.6,3,1,0,0,0,1,1,0,185,4,19,0,true
0.9.6,3,1,0,0,0,1,0,2,185,2,2,0,false
0.9.6,3,1,0,0,0,1,0,0,185,4,19,0,true
0.9.6,5,2,0,0,0,2,0,1,185,4,19,0,true
0.9.0,3,1,0,0,0,1,0,0,45,1,7,1,false
0.9.0,4,1,0,0,0,0,0,1,0,1,8,0,false
0.9.6,3,1,0,0,0,1,0,0,185,1,1,0,false
0.9.0,4,1,1,0,0,1,2,3,45,4,9,4,false
0.9.0,47,11,13,2,1,0,1,20,45,3,11,9,false
0.9.6,27,1,6,0,0,0,1,2,185,2,2,16,false
0.9.0,3,1,0,0,0,0,0,0,0,1,6,0,false
0.9.0,3,3,0,0,0,1,1,0,45,2,7,0,false
0.9.6,3,1,0,0,0,0,0,0,168,3,5,0,false
0.9.6,3,1,0,0,0,1,2,0,168,1,1,0,false
0.9.6,3,1,0,0,0,0,0,0,168,3,5,0,false
0.9.0,3,1,0,0,0,0,1,1,37,2,4,0,false
0.9.0,3,1,1,0,0,0,0,0,45,2,6,0,false
0.9.6,1,1,0,0,0,0,0,0,185,2,5,0,false
0.9.0,4,4,0,0,0,2,2,1,45,1,3,0,false
0.9.6,3,1,0,0,0,1,0,0,185,1,1,0,false
0.9.6,3,1,0,0,0,0,0,0,168,1,1,0,false
0.9.6,1,1,0,0,0,0,0,0,185,2,5,0,false
0.9.6,3,2,0,0,0,1,4,0,185,3,6,0,true
0.9.6,3,1,0,0,0,0,0,3,185,2,3,0,true
0.9.6,3,1,1,0,0,0,0,0,185,4,13,0,true
0.9.6,3,1,0,0,0,1,0,0,185,2,4,0,false
0.9.0,3,2,0,0,0,0,0,1,45,3,13,0,false
0.9.0,4,1,0,0,0,0,0,2,37,3,6,0,false
0.9.6,37,11,9,0,0,4,2,11,185,3,9,1,false
0.9.6,5,3,1,0,0,2,0,0,168,2,7,0,false
0.9.6,3,2,0,0,0,1,3,0,185,4,14,0,true
0.9.0,3,1,0,0,0,1,0,0,37,2,5,0,false
0.9.0,3,1,1,0,0,0,0,0,45,3,11,0,false
0.9.6,3,1,0,0,0,1,0,3,185,2,3,0,true
0.9.0,8,1,0,0,1,1,0,4,0,1,8,0,false
0.9.6,3,1,0,0,0,1,1,1,168,2,2,0,false
0.9.6,3,1,0,0,0,1,0,2,168,1,1,0,false
0.9.6,6,3,3,0,0,1,3,2,185,1,1,0,false
0.9.0,27,19,10,2,0,1,2,7,37,1,2,1,false
0.9.0,3,1,0,0,0,0,0,0,0,1,6,0,false
0.9.6,4,1,0,0,0,1,0,0,62,1,2,0,false
0.9.0,13,4,2,0,1,2,0,1,45,2,5,0,false
0.9.0,9,1,0,0,1,1,0,4,45,3,11,0,false
0.9.0,3,1,0,0,0,1,11,1,45,3,5,0,false
0.9.0,3,1,0,0,0,0,0,1,37,2,4,0,false
0.9.6,9,3,0,0,1,1,0,2,185,1,1,1,false
0.9.0,4,2,0,0,0,0,0,2,37,1,2,0,false
0.9.0,12,4,1,0,0,1,1,3,45,2,6,15,false
0.9.6,3,1,1,0,0,0,0,0,185,2,3,0,true
0.9.6,12,8,5,0,0,1,2,3,185,4,14,0,true
0.9.6,44,25,4,0,0,1,1,0,168,1,1,5,false
0.9.0,11,9,2,0,0,3,7,1,37,2,6,0,false
0.9.6,3,1,0,0,0,1,0,1,168,2,2,0,false
0.9.0,1,1,0,0,0,0,1,0,37,2,3,0,false
0.9.6,5,2,1,0,0,2,2,1,185,3,10,0,false
0.9.6,3,1,0,0,0,0,0,0,185,2,5,0,false
0.9.0,3,2,0,0,0,1,0,0,45,1,7,0,false
0.9.0,3,1,0,0,0,1,0,0,45,1,4,0,false
0.9.6,12,1,0,0,1,0,2,6,185,4,14,0,true
0.9.0,3,1,0,0,0,1,20,1,45,2,8,0,false
0.9.6,3,1,0,0,0,1,0,0,185,3,10,0,false
0.9.6,4,2,0,1,0,1,0,2,168,1,1,0,true
0.9.0,1,1,0,0,0,0,1,0,45,1,4,0,false
0.9.0,3,1,0,0,0,0,0,0,45,2,5,0,false
0.9.6,4,2,0,0,0,0,0,0,168,1,1,0,false
0.9.0,4,1,1,0,0,0,1,0,37,1,2,0,false
0.9.6,9,7,2,0,0,2,4,3,168,3,4,0,false
0.9.0,3,1,0,0,0,0,1,1,45,2,6,0,false
0.9.6,3,1,1,0,0,0,1,0,168,3,3,0,false
0.9.6,3,1,0,0,0,1,1,2,185,3,9,0,false
0.9.6,1,1,0,0,0,0,2,0,185,2,2,0,true
0.9.0,3,1,0,0,0,1,0,0,0,1,4,0,false
0.9.6,8,2,0,0,1,2,2,0,168,3,6,2,false
0.9.6,3,1,0,0,0,1,0,0,185,1,3,0,false
0.9.0,12,1,0,0,0,0,2,20,45,2,6,1,false
0.9.0,10,1,3,0,1,0,0,0,45,4,9,0,false
0.9.6,3,1,0,0,0,1,30,0,185,4,14,0,true
0.9.6,3,1,0,0,0,1,0,0,168,2,3,0,false
0.9.6,11,2,3,0,1,0,0,4,185,1,1,0,false
0.9.6,4,2,2,0,0,0,2,0,185,4,14,0,true
0.9.0,14,2,2,0,2,1,0,3,37,1,2,1,false
0.9.6,3,1,0,0,0,1,0,0,168,3,3,0,false
0.9.6,7,1,2,0,0,1,0,0,168,3,5,0,false
0.9.6,3,1,0,0,0,1,41,0,185,4,14,0,true
0.9.6,4,1,0,0,0,0,0,0,185,1,1,0,false
0.9.0,4,1,0,0,0,0,0,1,0,1,8,0,false
0.9.6,3,1,0,0,0,0,0,0,168,3,5,0,false
0.9.0,4,1,2,0,0,0,1,0,45,3,8,0,false
0.9.6,4,2,0,0,0,2,0,1,185,4,13,0,true
0.9.0,1,1,0,0,0,0,0,0,45,3,8,0,false
0.9.0,3,1,0,0,0,0,0,1,37,2,4,1,false
0.9.6,3,1,0,0,0,0,0,0,185,2,5,0,false
0.9.0,3,1,0,0,0,0,0,0,0,1,6,0,false
0.9.0,3,1,0,0,0,1,0,0,45,3,6,0,false
0.9.0,3,1,0,0,0,1,0,0,0,1,4,0,false
0.9.0,3,1,0,0,0,0,1,1,45,3,5,0,false
0.9.6,23,9,1,0,0,9,2,3,185,2,4,1,false
0.9.0,8,2,0,0,1,2,6,0,0,2,13,0,false
0.9.0,4,2,2,0,0,1,1,1,0,1,7,0,false
0.9.0,3,1,0,0,0,1,0,0,0,1,4,0,false
0.9.0,9,6,3,0,0,2,11,2,37,1,2,1,false
0.9.0,1,1,0,0,0,0,0,0,45,1,3,0,false
0.9.6,3,1,0,0,0,0,0,0,168,3,5,0,false
0.9.6,3,1,0,0,0,1,0,1,185,2,3,0,true
0.9.0,9,3,3,0,0,1,0,0,37,1,2,0,false
0.9.6,3,1,0,0,0,1,0,0,185,3,7,0,false
0.9.6,5,1,2,0,0,0,1,0,185,4,7,0,false
0.9.6,3,1,1,0,0,0,0,0,185,2,5,0,false
0.9.0,16,7,2,0,0,4,1,3,45,2,6,2,false
0.9.0,1,1,0,0,0,0,10,0,45,2,5,0,false
0.9.0,3,1,0,0,0,1,0,0,0,1,4,0,false
0.9.6,17,5,6,0,0,0,1,2,168,1,2,0,false
0.9.6,1,1,0,0,0,0,2,0,185,1,2,0,false
0.9.0,3,1,0,0,0,0,0,0,0,1,4,0,false
0.9.0,4,3,0,0,0,2,2,0,37,1,2,0,false
0.9.0,3,1,0,0,0,1,0,1,37,2,4,0,false
0.9.6,3,1,0,0,0,1,0,2,185,2,3,0,true
0.9.0,3,1,0,0,0,1,0,0,45,3,11,0,false
0.9.6,3,1,0,0,0,1,1,1,185,1,2,0,false
0.9.0,3,1,1,0,0,0,0,0,0,1,6,0,false
0.9.0,3,1,0,0,0,1,0,0,0,1,4,0,false
0.9.6,9,7,0,0,0,1,5,8,185,4,14,1,true
0.9.0,3,1,0,0,0,1,29,0,45,3,10,0,false
0.9.0,5,1,1,0,0,1,0,4,0,1,8,0,false
0.9.0,11,3,1,0,1,1,1,1,0,2,6,1,false
0.9.6,3,1,0,0,0,0,0,1,168,1,1,0,false
0.9.0,3,1,1,0,0,0,3,0,45,3,8,0,false
0.9.6,3,1,0,0,0,0,0,1,185,2,3,0,true
0.9.6,3,1,0,0,0,1,0,1,168,2,6,0,false
0.9.0,3,2,0,0,0,1,0,0,37,1,2,0,false
0.9.6,3,1,0,0,0,0,0,16,168,2,6,0,false
0.9.0,3,3,0,0,0,1,1,0,45,3,11,0,false
0.9.6,3,1,0,0,0,1,0,0,94,2,2,0,false
0.9.0,35,3,6,3,0,1,2,4,45,4,8,18,false
0.9.6,36,10,11,0,1,0,4,5,185,2,2,2,true
0.9.0,1,1,0,0,0,0,1,0,0,1,5,0,false
0.9.0,1,1,0,0,0,0,4,0,37,2,3,0,false
0.9.0,1,1,0,0,0,0,0,0,45,2,5,0,false
0.9.6,3,1,1,0,0,0,0,0,168,2,2,0,false
0.9.6,3,1,0,0,0,1,0,0,185,4,13,0,true
0.9.6,3,1,0,0,0,1,0,0,168,2,3,0,false
0.9.0,3,1,0,1,0,1,1,0,45,1,4,0,false
0.9.0,3,1,1,0,0,0,0,0,37,2,3,0,false
0.9.6,7,2,3,0,0,1,1,1,168,1,1,0,false
0.9.6,3,1,0,0,0,0,0,0,185,2,5,0,false
0.9.0,10,14,2,0,0,3,10,5,45,3,11,0,false
0.9.6,13,5,7,0,0,1,2,3,185,4,13,0,true
0.9.0,3,1,0,0,0,1,0,2,45,1,5,0,false
0.9.6,3,1,0,0,0,1,0,0,185,4,19,0,true
0.9.0,4,1,0,0,0,0,0,2,45,3,13,0,false
0.9.6,3,1,0,0,0,1,8,0,185,3,6,0,true
0.9.0,21,9,1,0,1,1,2,17,45,3,11,8,false
0.9.0,3,1,0,0,0,0,0,2,45,3,10,2,false
0.9.0,3,1,0,0,0,0,0,0,0,1,4,0,false
0.9.0,3,3,0,0,0,0,11,1,45,3,11,0,false
0.9.6,4,3,0,0,0,0,0,2,94,2,2,0,false
0.9.0,3,2,0,0,0,1,0,0,37,2,3,0,false
0.9.0,4,1,0,0,0,0,0,1,37,3,6,0,false
0.9.6,10,3,4,1,0,2,2,1,185,2,6,0,false
0.9.0,3,1,0,0,0,1,0,0,0,1,4,0,false
0.9.0,4,2,1,0,0,1,0,0,0,2,6,0,false
0.9.6,38,17,13,0,2,1,1,16,185,1,1,11,false
0.9.6,5,2,1,0,0,2,9,2,185,2,5,0,false
0.9.0,3,1,0,0,0,1,14,1,45,3,10,0,false
0.9.0,18,6,2,0,2,2,1,2,0,2,13,2,false
0.9.6,3,1,1,0,0,0,0,0,185,2,5,0,false
0.9.0,3,1,0,0,0,1,0,0,37,2,4,0,false
0.9.0,14,5,7,0,0,0,0,6,37,2,3,2,false
0.9.6,12,4,3,1,1,2,3,3,94,1,1,4,false
0.9.0,1,1,0,0,0,0,10,0,45,2,5,0,false
0.9.6,5,4,2,0,0,1,0,2,168,3,5,0,false
0.9.6,5,1,1,0,0,0,1,1,168,2,2,0,false
0.9.0,3,2,0,0,0,1,1,0,37,1,2,0,false
0.9.0,3,1,0,0,0,0,0,0,0,1,4,0,false
0.9.6,3,3,0,0,0,1,5,2,185,3,9,4,false
0.9.0,4,1,0,0,0,0,0,1,0,1,8,0,false
0.9.6,4,3,2,0,0,0,0,0,185,4,19,0,true
0.9.0,3,1,0,0,0,1,1,1,45,3,11,0,false
0.9.6,3,1,0,0,0,1,3,0,185,2,2,0,true
0.9.0,8,4,3,0,0,1,0,0,37,3,6,0,false
0.9.0,8,6,0,0,0,4,0,0,37,2,3,2,false
0.9.0,5,2,1,1,0,0,0,1,45,1,3,0,false
0.9.0,3,1,0,0,0,1,1,0,0,1,6,0,false
0.9.0,3,1,1,0,0,0,0,1,45,3,13,0,false
0.9.0,5,3,0,0,0,3,0,2,37,3,6,0,false
0.9.0,3,2,1,0,0,0,0,1,37,2,3,0,false
0.9.0,13,7,0,0,1,2,2,0,45,3,8,1,false
0.9.0,1,1,0,0,0,0,2,0,45,1,4,0,false
0.9.6,3,2,0,0,0,1,1,1,168,2,7,0,false
0.9.6,33,22,8,0,0,4,0,5,185,3,5,2,true
0.9.6,3,1,0,0,0,1,0,2,185,1,3,0,true
0.9.6,16,5,1,0,2,0,0,0,168,2,5,1,true
0.9.6,83,39,28,0,0,1,0,25,185,3,6,0,true
0.9.0,2,1,0,0,0,0,0,0,45,1,4,0,false
0.9.0,3,1,0,0,0,1,6,0,45,3,11,0,false
0.9.0,5,3,2,0,0,1,0,1,0,1,8,0,false
0.9.0,10,3,2,0,1,0,1,2,45,2,5,1,false
0.9.0,14,4,6,3,0,0,0,2,0,1,5,0,false
0.9.0,1,1,0,0,0,0,0,0,45,2,5,0,false
0.9.6,4,1,0,0,0,1,1,2,185,2,2,0,true
0.9.0,3,1,0,0,0,1,1,1,45,3,13,0,false
0.9.6,3,1,0,0,0,0,0,0,185,2,4,0,false
0.9.0,3,1,0,0,0,1,0,0,45,3,11,0,false
0.9.0,3,1,0,0,0,1,0,0,37,2,4,0,false
0.9.0,3,1,0,0,0,1,0,0,0,1,4,0,false
0.9.0,3,2,1,0,0,0,0,0,45,1,4,0,false
0.9.0,3,1,1,0,0,0,0,0,37,1,2,0,false
0.9.6,3,3,0,0,0,0,0,0,168,1,2,2,false
0.9.0,3,1,0,0,0,1,0,1,45,2,7,0,false
0.9.6,6,3,3,1,0,1,0,0,185,1,2,0,false
0.9.6,3,3,0,0,0,1,2,0,185,2,5,0,false
0.9.0,3,1,0,0,0,1,0,1,37,3,6,0,false
0.9.6,9,2,0,0,1,0,1,3,185,4,14,1,true
0.9.6,3,1,0,0,0,0,0,1,168,1,1,0,false
0.9.6,23,9,9,0,0,2,0,3,168,1,1,0,false
0.9.6,1,1,0,0,0,0,0,0,185,2,5,0,false
0.9.6,3,1,0,0,0,1,0,0,185,2,3,0,true
0.9.0,3,1,0,0,0,1,3,0,45,3,11,0,false
0.9.6,4,2,1,0,0,0,0,0,94,1,1,0,false
0.9.0,6,5,3,0,0,0,1,2,45,2,8,4,false
0.9.0,3,1,0,0,0,1,0,1,45,3,5,0,false
0.9.6,4,1,1,0,0,0,0,1,185,4,19,0,true
0.9.0,1,1,0,0,0,0,0,0,45,3,8,0,false
0.9.0,3,1,0,0,0,1,1,0,0,1,5,0,false
0.9.6,3,1,0,0,0,0,0,0,185,1,1,0,false
0.9.0,4,3,1,0,0,1,16,0,37,1,2,0,false
0.9.6,4,1,0,0,0,0,0,2,168,3,4,0,false
0.9.6,18,5,5,1,0,0,1,1,168,1,1,4,false
0.9.0,8,10,0,0,0,0,7,0,45,3,11,1,false
0.9.6,3,1,0,0,0,1,0,0,168,2,5,0,true
0.9.0,10,5,2,0,0,0,3,6,45,3,13,4,false
0.9.0,3,1,0,0,0,1,0,0,45,3,11,0,false
0.9.6,3,1,0,0,0,1,0,0,185,3,6,0,true
0.9.0,3,1,0,0,0,0,0,0,0,1,4,0,false
0.9.0,6,1,3,1,0,1,2,0,45,2,6,0,false
0.9.0,3,1,0,0,0,1,0,1,45,3,13,0,false
0.9.6,18,17,6,0,0,6,12,10,185,4,14,3,true
0.9.6,3,1,0,0,0,0,0,0,185,2,5,0,false
0.9.0,1,1,0,0,0,0,7,0,45,2,5,0,false
0.9.0,3,1,0,0,0,1,0,1,37,2,4,0,false
0.9.6,1,1,0,0,0,0,0,0,185,2,5,0,false
0.9.6,7,3,2,0,0,1,3,3,168,2,2,1,false
0.9.6,7,2,1,0,0,2,0,0,168,3,3,0,false
0.9.6,3,1,0,0,0,1,0,1,168,2,2,1,false
0.9.0,3,1,0,0,0,0,0,0,0,1,6,0,false
0.9.0,59,21,19,1,2,0,1,18,45,3,11,4,false
0.9.0,4,3,2,0,0,0,4,2,45,3,8,0,false
0.9.0,1,1,0,0,0,0,0,0,45,3,8,0,false
0.9.6,3,1,0,0,0,1,0,0,168,2,3,0,false
0.9.6,58,18,14,0,2,2,0,22,185,4,19,3,true
0.9.6,8,2,0,0,1,1,0,2,185,2,2,1,true
0.9.6,3,1,0,0,0,0,0,0,168,3,5,0,false
0.9.6,3,1,0,0,0,1,0,3,185,2,3,0,true
0.9.6,9,3,1,0,1,0,0,4,185,2,3,1,true
0.9.0,3,1,0,0,0,0,1,0,45,1,4,0,false
0.9.0,3,1,0,0,0,1,0,0,45,3,13,0,false
0.9.0,3,1,0,0,0,1,3,0,45,3,8,0,false
0.9.0,3,1,0,0,0,1,0,1,45,1,4,0,false
0.9.0,7,4,3,0,0,2,0,1,37,2,3,2,false
0.9.0,3,1,0,0,0,1,0,1,0,1,7,0,false
0.9.0,3,1,0,0,0,1,0,0,37,1,2,0,false
0.9.6,3,1,0,0,0,1,0,0,168,1,2,0,false
0.9.6,3,1,0,0,0,0,0,0,168,3,5,0,false
0.9.6,3,1,0,0,0,1,1,1,185,4,16,0,false
0.9.6,3,1,0,0,0,1,0,0,168,3,3,0,false
0.9.0,4,2,0,0,0,2,4,0,45,2,4,1,false
0.9.6,1,1,0,0,0,0,9,0,185,2,2,0,true
0.9.6,3,1,0,0,0,1,1,0,168,2,5,0,true
0.9.0,4,2,0,0,0,1,0,2,37,3,6,0,false
0.9.6,4,3,0,0,0,2,3,0,168,2,7,0,false
0.9.6,3,1,0,0,0,0,0,0,33,3,5,0,false
0.9.6,3,1,1,0,0,0,0,0,168,1,1,0,false
0.9.0,3,1,0,0,0,0,0,0,0,1,6,0,false
0.9.6,25,5,7,0,0,2,2,22,185,3,9,6,false
0.9.6,3,1,0,0,0,1,0,0,185,2,4,0,false
0.9.0,4,1,0,0,0,0,0,1,0,1,8,0,false
0.9.6,3,1,0,0,0,1,0,0,94,1,1,0,false
0.9.6,8,2,3,0,0,2,1,1,70,1,2,3,false
0.9.6,3,1,0,0,0,1,0,0,185,1,1,0,false
0.9.6,3,1,0,0,0,1,0,0,185,2,2,0,false
0.9.0,1,1,0,0,0,0,0,0,45,3,8,0,false
0.9.0,1,1,0,0,0,0,0,0,45,1,4,0,false
0.9.6,3,1,0,0,0,1,0,1,168,2,2,0,false
0.9.0,6,1,1,0,0,0,1,1,37,2,2,2,false
0.9.6,3,1,0,0,0,1,0,0,185,2,5,0,false
0.9.6,3,1,0,0,0,1,0,0,185,1,2,0,false
0.9.0,1,1,0,0,0,0,1,0,45,2,5,0,false
0.9.0,3,1,1,0,0,0,1,0,37,1,2,0,false
0.9.6,48,16,21,0,4,1,0,12,168,1,2,8,false
0.9.6,3,1,0,2,0,1,1,0,185,3,9,0,false
0.9.6,1,1,0,0,0,0,1,0,168,1,1,0,true
0.9.0,4,1,0,0,0,0,0,2,45,3,13,0,false
0.9.6,1,1,0,0,0,0,0,0,185,2,5,0,false
0.9.6,6,4,1,0,0,2,0,1,168,3,6,0,false
0.9.6,5,2,1,0,0,2,0,0,185,1,2,0,false
0.9.6,3,1,0,0,0,1,0,0,185,3,5,0,false
0.9.0,3,1,0,0,0,1,0,1,37,3,6,0,false
0.9.0,3,1,0,0,0,0,0,0,0,1,6,0,false
0.9.6,16,5,1,0,1,3,0,0,168,1,1,2,false
0.9.0,3,1,0,0,0,0,0,0,45,2,5,0,false
0.9.6,3,1,0,0,0,0,0,0,168,3,5,0,false
0.9.6,5,3,1,0,0,0,0,1,168,1,1,2,false
0.9.0,6,3,2,1,0,2,3,3,45,2,6,0,false
0.9.6,4,2,0,0,0,2,6,0,94,1,1,0,false
0.9.6,5,1,2,0,0,0,0,0,185,1,1,0,false
0.9.0,3,1,0,0,0,1,0,0,0,1,4,0,false
0.9.6,3,1,0,0,0,1,0,0,185,2,4,0,false
0.9.0,3,1,0,0,0,0,0,0,0,1,6,0,false
0.9.0,3,1,0,0,0,0,0,0,37,2,4,0,false
0.9.0,3,1,0,0,0,1,0,0,37,2,4,0,false
0.9.6,3,1,0,0,0,0,0,0,168,3,5,0,false
0.9.6,3,1,0,0,0,1,1,0,185,1,1,0,false
0.9.0,3,1,0,1,0,1,0,0,45,1,3,0,false
0.9.6,3,1,0,0,0,1,0,0,168,1,3,0,false
0.9.0,3,1,0,0,0,1,0,0,37,1,2,0,false
0.9.6,2,1,0,0,0,0,0,0,168,2,5,0,true
0.9.6,2,1,0,0,0,0,0,0,168,1,1,0,false
0.9.6,26,14,12,0,0,3,2,7,185,3,6,1,true
0.9.6,3,1,0,0,0,1,1,0,185,1,2,0,false
0.9.0,3,2,0,0,0,0,3,0,45,3,11,0,false
0.9.0,19,7,8,0,0,3,2,1,37,3,9,2,false
0.9.0,3,1,0,0,0,1,0,0,0,1,4,0,false
0.9.6,3,1,0,0,0,1,1,0,185,3,5,0,false
0.9.0,3,1,1,0,0,0,0,0,0,2,9,0,false
0.9.0,1,1,0,0,0,0,2,0,45,2,6,0,false
0.9.0,3,1,0,0,0,0,0,0,45,3,7,0,false
0.9.0,10,4,4,0,0,1,3,3,37,1,2,1,false
0.9.6,1,1,0,0,0,0,0,0,185,2,5,0,false
0.9.0,4,2,0,0,0,2,0,2,0,1,5,0,false
0.9.0,1,1,0,0,0,0,4,0,45,3,8,0,false
0.9.0,1,1,0,0,0,0,16,0,45,2,5,0,false
0.9.6,3,1,0,0,0,1,0,0,185,1,1,0,false
0.9.0,3,2,0,0,0,1,0,7,45,1,5,0,false
0.9.6,1,1,0,0,0,0,0,0,185,2,4,0,false
0.9.0,3,1,1,0,0,0,0,0,37,2,3,0,false
0.9.6,7,2,2,0,0,0,2,0,168,2,2,2,false
0.9.6,7,3,2,0,0,1,1,2,94,1,1,0,false
0.9.6,9,6,7,0,0,0,0,0,168,2,3,2,false
0.9.0,4,3,0,0,0,2,0,0,37,2,6,0,false
0.9.6,1,1,0,0,0,0,0,0,168,1,2,0,false
0.9.0,8,8,0,0,0,6,2,1,37,1,2,0,false
0.9.0,11,7,3,0,0,1,0,6,37,1,2,0,false
0.9.0,3,1,0,0,0,1,0,1,37,2,3,0,false
0.9.6,3,1,0,0,0,1,0,1,185,1,2,0,false
0.9.0,23,1,1,0,0,1,1,1,45,2,6,61,false
0.9.6,15,4,4,0,0,2,1,4,185,2,2,3,false
0.9.6,3,1,0,0,0,1,4,0,94,1,1,0,false
0.9.0,3,2,0,0,0,1,7,0,45,3,13,0,false
0.9.0,8,2,0,0,1,1,0,2,45,3,7,1,false
0.9.6,12,4,1,0,1,1,0,1,168,3,6,1,false
0.9.0,5,1,1,0,0,0,1,0,45,2,7,0,false
0.9.6,3,1,0,0,0,1,0,0,185,1,1,0,false
0.9.6,3,1,0,0,0,0,0,1,168,1,1,0,false
0.9.6,3,1,0,0,0,0,0,0,168,3,5,0,false
0.9.0,10,3,0,0,1,2,0,7,45,3,13,1,false
0.9.0,8,1,0,0,1,1,0,4,0,1,8,0,false
0.9.6,3,1,0,0,0,1,0,1,185,3,4,0,false
0.9.0,3,2,0,0,0,1,0,0,0,1,5,1,false
0.9.0,3,1,0,1,0,1,0,0,45,2,5,0,false
0.9.6,2,1,0,0,0,0,0,0,185,2,2,0,false
0.9.6,3,1,0,0,0,0,0,0,168,3,5,0,false
0.9.6,3,1,0,0,0,0,0,0,168,2,2,0,false
0.9.6,5,2,2,1,0,1,0,0,168,1,1,0,true
0.9.6,12,7,4,0,0,0,1,4,185,4,14,0,true
0.9.0,3,1,0,0,0,0,0,0,45,2,5,0,false
0.9.6,3,1,0,0,0,1,0,1,185,2,2,0,true
0.9.0,3,1,0,0,0,1,0,0,45,2,6,0,false
0.9.0,3,1,0,0,0,1,0,0,0,1,4,0,false
0.9.6,11,3,0,0,0,0,0,2,168,3,4,2,false
0.9.0,10,3,0,0,0,3,2,0,45,2,7,0,false
0.9.0,6,2,0,0,0,0,1,2,45,2,6,0,false
0.9.6,3,1,0,0,0,1,0,0,185,4,14,0,true
0.9.0,3,1,0,0,0,1,11,1,45,2,8,0,false
0.9.0,3,1,0,0,0,1,0,0,45,2,4,0,false
0.9.6,3,1,0,0,0,0,0,0,185,2,5,0,false
0.9.0,3,1,0,0,0,1,0,0,37,2,2,0,false
0.9.0,1,1,0,0,0,0,1,0,37,1,2,0,false
0.9.0,8,2,2,0,0,1,1,1,45,4,9,0,false
0.9.6,3,1,0,0,0,0,0,2,94,2,2,0,false
0.9.6,4,2,1,0,0,0,0,1,168,2,2,0,false
0.9.6,3,1,0,0,0,1,0,0,94,1,1,0,false
0.9.0,16,5,1,0,1,1,4,6,45,3,13,0,false
0.9.0,3,1,0,0,0,1,1,0,37,2,3,0,false
0.9.0,3,1,0,0,0,1,0,0,37,1,2,0,false
0.9.6,3,1,0,0,0,1,0,0,168,1,2,0,false
0.9.6,3,1,0,0,0,1,0,0,185,1,1,0,false
0.9.0,1,1,0,0,0,0,0,0,45,3,8,0,false
0.9.6,5,3,1,0,0,1,0,1,168,1,1,1,false
0.9.6,31,15,11,0,0,1,2,1,94,4,7,5,false
0.9.6,3,1,0,0,0,1,11,0,185,4,16,0,false
0.9.0,23,5,0,0,2,2,0,8,45,3,11,1,false
0.9.0,3,1,0,0,0,1,0,0,0,1,4,0,false
0.9.6,4,1,0,0,0,1,0,2,185,2,2,0,true
0.9.6,3,1,0,0,0,1,1,0,185,2,5,0,false
0.9.6,10,3,6,0,0,1,1,6,185,3,9,2,false
0.9.6,3,1,0,0,0,1,1,0,185,1,3,0,true
0.9.6,3,1,0,0,0,1,0,0,168,3,5,0,false
0.9.0,3,1,0,0,0,1,0,0,45,2,5,0,false
0.9.6,3,1,0,0,0,1,0,0,185,1,1,0,false
0.9.0,5,3,0,0,0,3,0,0,45,2,8,0,false
0.9.0,1,1,0,0,0,0,2,0,45,3,8,0,false
0.9.0,3,1,1,0,0,0,0,0,0,1,5,0,false
0.9.0,3,1,1,0,0,0,0,0,45,1,5,0,false
0.9.6,4,1,0,0,0,0,0,2,168,3,4,0,false
0.9.6,3,1,0,0,0,0,0,1,168,1,1,0,false
0.9.6,20,8,5,0,0,2,1,4,185,4,7,5,false
0.9.6,13,12,5,0,0,4,1,4,185,3,9,2,false
0.9.0,14,7,6,0,0,1,4,3,37,2,3,0,false
0.9.0,18,9,1,0,0,9,0,5,45,3,13,1,false
0.9.0,3,1,0,0,0,0,0,3,45,2,7,0,false
0.9.0,9,3,0,0,1,1,0,2,45,1,4,1,false
0.9.0,3,1,0,0,0,0,2,0,37,2,3,0,false
0.9.0,4,2,0,0,0,0,0,1,0,1,4,0,false
0.9.0,3,2,0,0,0,1,0,1,37,1,2,0,false
0.9.0,4,2,2,0,0,0,4,0,45,3,13,0,false
0.9.6,4,2,0,0,0,2,1,2,185,4,19,0,true
0.9.6,3,1,0,0,0,1,6,0,185,2,2,0,false
0.9.0,3,1,1,0,0,0,1,0,45,3,8,0,false
0.9.6,3,1,0,0,0,0,0,1,168,3,5,0,false
0.9.0,3,1,0,0,0,1,0,0,37,2,6,0,false
0.9.6,3,1,0,0,0,0,0,0,185,1,1,0,false
0.9.6,3,1,0,0,0,1,0,0,185,3,6,0,true
0.9.0,15,5,6,1,0,0,5,9,0,2,13,2,false
0.9.0,3,1,0,0,0,0,0,0,0,1,4,0,false
0.9.6,1,1,0,0,0,0,2,0,94,1,1,0,false
0.9.0,3,1,0,0,0,0,0,0,0,1,6,0,false
0.9.0,3,1,0,0,0,0,0,0,0,1,4,0,false
0.9.0,3,1,1,0,0,0,0,0,37,2,3,0,false
0.9.6,3,1,0,0,0,0,1,3,185,2,3,0,true
0.9.0,32,19,0,0,0,10,1,0,45,3,10,1,false
0.9.6,18,8,5,0,0,2,1,0,168,1,2,9,false
0.9.6,3,1,0,0,0,1,0,0,168,1,2,0,false
0.9.0,13,11,2,0,0,1,0,0,37,2,3,3,false
0.9.6,1,1,0,0,0,0,0,0,168,1,1,0,false
0.9.6,3,1,0,0,0,1,25,0,185,4,14,0,true
0.9.6,1,1,0,0,0,0,0,0,185,2,5,0,false
0.9.6,3,1,0,0,0,1,1,0,168,2,6,0,false
0.9.0,24,10,5,0,0,4,3,2,45,1,5,2,false
0.9.0,25,7,8,0,1,1,2,5,45,4,9,2,false
0.9.0,25,11,8,0,0,1,4,7,45,3,10,3,false
0.9.0,3,1,0,0,0,1,2,1,45,3,8,0,false
0.9.0,3,1,0,0,0,1,2,0,37,2,4,0,false
0.9.6,4,2,0,0,0,2,0,1,168,2,3,0,false
0.9.6,3,1,1,0,0,0,1,0,185,4,13,0,true
0.9.6,3,2,0,0,0,1,0,0,168,2,2,0,false
0.9.0,4,2,1,0,0,1,1,0,45,2,4,0,false
0.9.0,3,1,1,0,0,0,3,0,45,2,6,0,false
0.9.0,3,1,0,0,0,1,0,0,37,2,2,0,false
0.9.6,5,3,1,0,0,2,0,1,185,1,1,0,false
0.9.0,3,1,0,0,0,1,0,0,0,1,8,0,false
0.9.0,3,1,0,0,0,0,0,0,45,2,5,0,false
0.9.0,3,1,0,0,0,1,7,0,37,2,6,0,false
0.9.6,3,1,0,0,0,1,0,1,185,3,10,0,false
0.9.0,16,7,4,0,0,4,0,3,45,4,9,3,false
0.9.0,7,5,2,1,0,1,1,2,0,1,5,0,false
0.9.0,3,1,0,0,0,1,0,1,45,3,13,0,false
0.9.6,3,1,0,0,0,1,0,0,168,2,2,0,false
0.9.6,3,1,0,0,0,0,0,0,185,1,1,0,false
0.9.0,4,3,0,0,0,2,0,2,37,1,2,1,false
0.9.6,3,1,0,0,0,0,0,0,168,2,2,0,false
0.9.0,3,1,1,0,0,0,0,0,37,2,3,0,false
0.9.0,23,6,4,1,1,2,0,1,45,1,7,2,false
0.9.0,1,1,0,0,0,0,3,0,45,1,4,0,false
0.9.0,3,1,0,0,0,1,5,0,45,1,4,0,false
0.9.0,7,2,2,0,0,2,0,0,45,3,8,0,false
0.9.6,4,1,0,0,0,0,0,1,94,1,1,0,false
0.9.6,1,1,0,0,0,0,0,0,168,3,5,0,false
0.9.0,14,6,3,0,0,1,2,3,0,2,7,1,false
0.9.6,3,1,0,0,0,1,0,0,168,2,3,0,false
0.9.6,3,1,0,0,0,1,0,0,185,2,4,0,false
0.9.0,3,1,0,0,0,1,0,1,45,2,8,2,false
0.9.6,3,1,0,0,0,1,0,0,62,1,2,0,false
0.9.6,3,1,0,0,0,0,0,0,33,3,5,0,false
0.9.0,3,1,0,0,0,1,0,0,45,3,6,0,false
0.9.6,3,1,1,0,0,0,0,0,0,1,1,0,false
0.9.0,3,4,0,0,0,1,0,0,45,2,4,0,false
0.9.6,15,6,2,1,1,3,2,4,94,1,1,0,false
0.9.0,3,1,0,0,0,1,0,0,37,1,2,0,false
0.9.0,1,1,0,0,0,0,1,0,45,1,4,0,false
0.9.6,15,8,6,0,0,1,0,3,168,3,5,3,false
0.9.6,6,3,1,0,0,2,2,1,168,2,2,0,false
0.9.6,3,1,0,0,0,0,0,0,185,2,5,0,false
0.9.6,3,1,0,0,0,1,0,0,185,2,2,0,true
0.9.0,3,1,0,0,0,1,5,0,45,3,11,0,false
0.9.6,1,1,0,0,0,0,1,0,185,2,4,0,false
0.9.0,3,1,0,0,0,1,0,0,0,1,4,0,false
0.9.0,3,4,0,0,0,1,1,1,37,3,9,1,false
0.9.0,8,1,0,0,1,1,0,3,45,2,7,0,false
0.9.0,4,2,0,1,0,1,0,2,37,3,3,0,false
0.9.6,3,1,0,0,0,1,0,0,168,1,1,0,false
0.9.6,4,3,0,0,0,2,0,0,185,4,19,0,true
0.9.0,10,3,3,0,0,0,0,1,45,4,8,10,false
0.9.0,18,5,9,0,0,1,2,1,37,2,4,3,false
0.9.0,4,2,2,0,0,0,1,0,45,1,7,0,false
0.9.0,3,1,0,0,0,0,3,0,45,1,4,0,false
0.9.6,3,1,0,0,0,1,0,0,94,2,2,0,false
0.9.6,4,1,0,0,0,0,1,2,185,3,10,0,false
0.9.0,7,5,4,0,0,0,0,2,45,2,5,0,false
0.9.6,12,6,1,0,1,1,0,0,168,2,5,0,true
0.9.6,31,1,5,0,0,0,1,0,185,2,2,24,false
0.9.6,4,2,0,0,0,1,0,0,185,1,1,0,false
0.9.6,3,1,0,0,0,1,0,1,185,2,2,0,true
0.9.0,3,1,0,0,0,1,0,1,45,3,13,0,false
0.9.6,17,1,8,2,0,1,2,3,94,2,2,0,false
0.9.6,4,2,1,0,0,1,0,1,168,2,5,0,false
0.9.0,4,1,0,0,0,0,0,2,37,3,6,0,false
0.9.6,3,1,0,0,0,0,0,0,185,1,1,0,false
0.9.0,2,1,0,0,0,0,0,0,0,1,5,0,false
0.9.6,25,1,7,0,0,0,1,0,185,2,2,19,false
0.9.6,3,1,0,0,0,1,0,0,185,1,1,0,false
0.9.0,1,1,0,0,0,0,3,0,45,2,5,0,false
0.9.0,4,1,1,0,0,1,0,1,37,1,2,0,false
0.9.0,1,1,0,0,0,0,3,0,37,2,3,0,false
0.9.0,3,1,0,0,0,0,0,0,45,2,5,0,false
0.9.6,3,1,0,0,0,1,0,5,185,2,3,0,true
0.9.0,1,1,0,0,0,0,1,0,0,1,4,0,false
0.9.0,3,1,0,0,0,0,0,0,0,1,4,0,false
0.9.0,3,1,0,0,0,0,0,0,0,2,12,0,false
0.9.6,3,1,0,0,0,0,0,0,185,1,1,0,false
0.9.0,3,1,0,0,0,0,0,0,0,1,6,0,false
0.9.0,11,10,0,0,0,7,0,2,37,3,6,1,false
0.9.0,10,3,1,0,1,0,1,1,45,2,9,1,false
0.9.0,3,1,0,0,0,0,0,0,45,2,5,0,false
0.9.6,13,4,2,0,1,2,0,2,185,3,10,0,true
0.9.6,55,37,24,2,0,3,0,20,185,2,2,7,true
0.9.0,3,1,0,0,0,1,0,0,0,1,4,0,false
0.9.6,3,1,0,0,0,1,0,0,185,3,6,0,true
0.9.0,9,9,1,0,0,0,0,3,37,1,2,0,false
0.9.6,3,1,0,0,0,1,0,2,185,2,5,1,false
0.9.0,5,3,0,0,0,3,1,0,45,3,13,1,false
0.9.6,3,1,0,0,0,1,0,1,185,3,5,0,true
0.9.6,3,1,0,0,0,1,0,0,185,2,5,0,false
0.9.0,3,1,0,0,0,1,0,1,0,1,5,0,false
0.9.0,1,1,0,0,0,0,4,0,37,2,5,0,false
0.9.6,3,1,1,0,0,0,1,0,185,2,5,0,false
0.9.6,21,7,6,0,0,3,5,3,168,1,1,1,false
0.9.0,3,1,0,0,0,1,0,0,0,1,4,0,false
0.9.6,3,1,0,0,0,1,0,0,185,2,3,0,true
0.9.0,3,1,0,0,0,0,0,0,0,1,4,0,false
0.9.6,4,1,1,0,0,0,1,1,185,4,19,0,true
0.9.6,3,1,0,0,0,0,0,0,168,3,5,0,false
0.9.6,3,1,1,0,0,0,1,0,168,2,7,0,false
0.9.0,3,1,0,0,0,1,0,0,45,1,3,0,false
0.9.0,15,6,5,0,0,2,12,2,45,3,8,0,false
0.9.6,22,8,0,0,1,0,0,2,33,3,5,1,false
0.9.0,3,1,0,0,0,1,0,1,37,2,4,0,false
0.9.0,15,6,7,0,0,2,0,11,45,2,7,0,false
0.9.6,5,4,1,0,0,0,0,0,185,4,13,0,true
0.9.6,3,1,1,0,0,0,0,0,168,2,2,0,false
0.9.0,3,1,0,0,0,1,2,2,45,3,11,0,false
0.9.0,10,1,2,0,0,0,1,0,45,1,4,9,false
0.9.6,1,1,0,0,0,0,1,0,185,2,2,0,true
0.9.0,1,1,0,0,0,0,0,0,45,1,3,0,false
0.9.0,13,5,7,0,0,1,2,3,45,3,8,0,false
0.9.0,39,13,18,0,0,0,0,6,37,2,5,13,false
0.9.6,3,1,1,0,0,0,0,0,0,1,1,0,false
0.9.0,7,3,1,0,0,0,0,3,37,2,2,3,false
0.9.6,5,2,2,0,0,0,3,1,185,2,5,0,false
0.9.0,3,1,0,0,0,1,0,0,45,3,8,0,false
0.9.0,8,2,0,0,1,1,0,2,45,3,7,1,false
0.9.6,3,1,0,0,0,0,2,1,185,4,16,0,false
0.9.0,12,5,3,0,0,1,0,0,37,1,2,1,false
0.9.0,8,6,1,0,0,1,2,1,45,2,5,1,false
0.9.0,4,2,1,3,0,1,0,2,0,1,5,0,false
0.9.0,3,2,0,0,0,1,1,0,45,3,11,0,false
0.9.0,5,1,1,0,0,0,0,2,37,2,4,0,false
0.9.6,3,1,0,0,0,0,0,0,168,3,5,0,false
0.9.0,3,1,1,0,0,0,0,0,37,1,2,0,false
0.9.6,3,1,0,0,0,0,0,0,185,2,5,0,false
0.9.6,1,1,0,0,0,0,1,0,185,1,2,0,false
0.9.0,3,1,0,0,0,1,0,0,45,3,11,0,false
0.9.0,3,1,0,0,0,1,0,0,37,2,4,0,false
0.9.6,3,1,0,0,0,1,0,0,185,4,19,0,true
0.9.0,8,5,2,0,0,1,0,4,37,2,4,2,false
0.9.6,7,2,2,0,0,0,0,1,168,1,1,3,false
0.9.0,4,4,0,0,0,2,0,0,37,2,3,0,false
0.9.0,4,3,0,0,0,0,0,1,0,1,4,0,false
0.9.0,22,9,13,0,0,2,2,3,37,2,6,1,false
0.9.0,3,1,0,0,0,1,0,3,45,2,7,0,false
0.9.6,3,1,0,0,0,1,0,1,185,2,3,0,true
0.9.0,3,1,0,0,0,0,0,0,45,3,7,0,false
0.9.0,4,2,1,0,0,1,7,1,0,1,8,0,false
0.9.6,39,12,23,0,0,0,1,29,185,4,13,4,true
0.9.0,14,5,7,0,0,0,1,5,45,2,6,6,false
0.9.0,4,1,0,0,0,0,0,1,0,1,8,0,false
0.9.6,5,4,1,0,0,2,0,2,185,2,5,2,false
0.9.0,1,1,0,0,0,0,0,0,45,3,8,0,false
0.9.6,3,1,0,0,0,1,7,0,168,1,2,0,false
0.9.0,8,9,1,0,0,1,3,0,45,3,8,0,false
0.9.6,3,1,0,0,0,1,0,0,185,1,1,0,false
0.9.6,3,1,0,0,0,1,1,0,168,1,1,0,false
0.9.6,16,5,4,0,1,2,0,0,168,1,1,2,false
0.9.0,5,1,3,1,0,0,1,0,45,1,3,0,false
0.9.6,3,1,0,0,0,1,0,0,185,3,9,0,false
0.9.6,3,1,0,0,0,0,0,0,185,2,5,0,false
0.9.0,3,1,0,0,0,1,1,0,37,2,4,0,false
0.9.0,3,1,0,0,0,0,0,1,45,2,7,0,false
0.9.0,1,1,0,0,0,0,1,0,45,1,4,0,false
0.9.6,1,1,0,0,0,0,1,0,168,1,1,0,true
0.9.6,9,5,5,0,0,2,2,3,185,2,2,0,false
0.9.6,4,1,0,0,0,0,0,2,185,3,10,0,false
0.9.0,3,1,0,0,0,1,3,0,45,3,11,0,false
0.9.0,3,1,0,0,0,0,0,0,0,1,5,0,false
0.9.0,3,1,0,0,0,0,0,3,45,2,7,0,false
0.9.0,3,1,0,0,0,1,10,0,37,2,3,0,false
0.9.0,8,2,0,0,1,1,0,2,45,3,7,1,false
0.9.6,3,1,0,0,0,0,3,3,168,2,7,0,false
0.9.0,3,1,0,0,0,1,0,0,45,1,4,0,false
0.9.6,4,1,0,0,0,0,0,2,185,3,10,0,false
0.9.6,3,1,0,0,0,1,0,0,185,4,13,0,true
0.9.6,25,12,3,0,0,2,1,14,185,4,13,7,true
0.9.0,4,1,2,0,0,0,0,1,45,3,13,0,false
0.9.6,4,1,0,0,0,0,0,2,168,3,4,0,false
0.9.6,3,2,1,0,0,0,0,0,185,2,2,0,true
0.9.0,4,1,0,0,0,0,0,0,37,2,4,1,false
0.9.6,3,1,1,0,0,0,0,0,94,2,2,0,false
0.9.0,16,2,4,0,0,1,1,3,37,3,9,4,false
0.9.6,3,1,0,0,0,1,0,0,168,1,2,0,false
0.9.6,4,2,0,0,0,2,0,0,168,2,7,0,false
0.9.0,3,1,0,0,0,1,0,0,0,1,4,0,false
0.9.6,3,1,0,0,0,1,0,1,168,1,2,0,false
0.9.0,3,1,0,0,0,1,1,1,37,3,9,0,false
0.9.6,5,3,0,1,0,0,0,1,168,3,3,0,false
0.9.0,8,4,3,0,0,1,3,2,37,3,6,1,false
0.9.6,3,1,1,0,0,0,0,0,168,1,2,0,false
0.9.0,18,13,3,0,0,6,1,2,45,3,11,2,false
0.9.6,25,11,8,0,0,1,3,3,185,2,5,3,false
0.9.6,16,11,1,0,0,3,2,7,185,4,19,1,true
0.9.6,1,1,0,0,0,0,0,0,168,1,2,0,false
0.9.0,1,1,0,0,0,0,2,0,45,3,8,0,false
0.9.6,3,1,0,0,0,1,0,1,185,3,10,0,false
0.9.0,6,3,1,0,0,3,0,0,37,2,6,2,false
0.9.6,3,1,0,0,0,1,0,0,168,3,3,0,false
0.9.6,3,1,0,0,0,1,0,3,185,2,3,0,true
0.9.0,4,1,0,0,0,0,0,1,0,1,8,0,false
0.9.6,5,1,3,0,0,0,0,0,168,1,1,2,false
0.9.0,10,6,1,0,0,1,5,11,45,3,13,1,false
0.9.0,4,4,0,0,0,0,2,1,0,2,9,0,false
0.9.0,11,6,2,0,0,0,2,6,45,3,13,4,false
0.9.6,3,1,0,0,0,1,0,1,185,3,10,0,false
0.9.0,3,1,0,0,0,1,0,1,45,2,7,0,false
0.9.0,3,1,1,0,0,0,1,0,0,2,9,0,false
0.9.6,3,2,0,0,0,1,0,0,168,3,5,0,false
0.9.0,4,3,0,0,0,1,27,1,45,2,8,0,false
0.9.0,3,1,1,0,0,0,1,0,45,1,7,0,false
0.9.6,4,3,0,0,0,2,0,0,185,4,19,0,true
0.9.0,3,1,0,0,0,1,0,0,0,1,4,0,false
0.9.0,3,2,0,0,0,1,0,0,0,1,7,0,false
0.9.0,1,1,0,0,0,0,0,0,45,1,4,0,false
0.9.0,3,1,0,0,0,1,0,0,37,2,2,0,false
0.9.6,3,1,0,0,0,0,0,0,168,3,5,0,false
0.9.0,3,1,0,0,0,1,99,0,45,3,10,0,false
0.9.0,4,1,0,0,0,1,2,1,37,3,9,0,false
0.9.0,5,3,1,0,0,2,3,1,45,3,10,0,false
0.9.6,11,4,0,0,1,0,2,0,185,3,4,2,false
0.9.0,3,1,0,0,0,1,0,2,37,2,4,0,false
0.9.0,3,1,0,0,0,1,0,0,37,2,3,0,false
0.9.0,7,5,1,0,0,0,1,3,45,3,10,1,false
0.9.0,57,15,16,0,2,2,11,24,45,3,11,11,false
0.9.0,3,1,0,0,0,1,1,0,45,3,11,0,false
0.9.0,3,1,0,0,0,1,0,0,0,1,4,0,false
0.9.6,3,1,0,1,0,1,0,0,185,2,2,0,false
0.9.6,11,3,2,0,0,0,0,0,185,4,13,0,true
0.9.6,9,1,0,0,1,1,0,2,168,2,5,0,true
0.9.6,3,1,0,0,0,1,4,0,185,2,6,0,true
0.9.0,8,2,0,0,1,0,0,2,45,3,7,1,false
0.9.6,4,1,0,0,0,0,0,1,94,1,1,0,false
0.9.6,3,1,0,0,0,0,0,0,185,2,5,0,false
0.9.6,1,1,0,0,0,0,0,0,185,2,5,0,false
0.9.0,3,1,0,0,0,0,0,0,45,3,7,0,false
0.9.0,6,3,1,0,0,3,0,0,45,3,8,0,false
0.9.6,2,1,0,0,0,0,1,0,185,3,6,0,true
0.9.6,24,12,4,0,1,1,14,10,185,4,14,2,true
0.9.0,3,1,0,0,0,1,1,0,45,1,4,0,false
0.9.0,2,1,0,0,0,0,1,1,45,2,6,0,false
0.9.6,4,1,0,0,0,1,0,0,185,1,1,0,false
0.9.6,5,3,0,1,0,3,5,0,168,2,7,0,false
0.9.0,3,1,0,0,0,1,0,0,45,2,4,0,false
0.9.6,1,1,0,0,0,0,0,0,185,2,5,0,false
0.9.6,3,1,0,0,0,1,3,0,185,4,19,0,true
0.9.0,13,7,6,1,0,1,0,0,37,2,6,1,false
0.9.0,3,1,0,0,0,1,0,3,45,4,8,0,false
0.9.6,3,1,0,0,0,1,5,0,185,2,2,0,false
0.9.0,3,1,1,0,0,0,0,0,37,2,2,0,false
0.9.0,3,1,1,0,0,0,1,0,0,2,9,0,false
0.9.0,24,16,1,0,0,9,1,1,37,2,6,13,false
0.9.0,3,1,0,0,0,1,0,0,45,3,6,0,false
0.9.6,3,1,0,0,0,0,0,1,168,1,1,0,false
0.9.0,3,1,0,0,0,1,0,0,45,1,3,0,false
0.9.6,3,1,0,0,0,0,0,0,168,2,2,0,false
0.9.6,3,1,1,0,0,0,3,0,168,1,1,0,false
0.9.0,3,1,0,0,0,1,1,0,45,1,5,0,false
0.9.0,6,2,2,1,0,2,0,1,45,2,9,0,false
0.9.0,3,1,1,0,0,0,0,0,37,2,3,0,false
0.9.6,9,3,5,0,0,1,1,0,185,1,1,0,false
0.9.0,3,1,0,0,0,1,0,0,45,2,6,0,false
0.9.0,31,18,1,0,0,0,0,0,45,2,4,1,false
0.9.0,4,2,0,0,0,0,0,1,45,2,6,0,false
0.9.0,5,3,1,0,0,2,0,1,0,1,7,1,false
0.9.6,5,3,3,0,0,0,0,0,185,2,3,0,true
0.9.6,1,1,0,0,0,0,0,0,185,2,5,0,false
0.9.0,3,1,1,0,0,0,0,0,37,1,2,0,false
0.9.6,6,4,0,0,0,4,3,0,168,2,2,1,false
0.9.0,4,3,0,0,0,0,3,0,37,2,3,1,false
0.9.0,1,1,0,0,0,0,10,0,45,1,4,0,false
0.9.6,4,2,0,0,0,1,0,2,185,3,10,0,false
0.9.6,3,1,0,0,0,0,0,1,185,2,2,0,true
0.9.0,9,3,0,0,1,1,14,0,0,1,7,0,false
0.9.6,13,2,2,0,1,1,1,2,185,2,6,1,true
0.9.6,3,1,0,0,0,0,1,1,168,1,1,0,false
0.9.0,4,1,0,0,0,0,0,1,45,4,9,0,false
0.9.0,6,1,1,0,0,1,1,3,45,2,6,2,false
0.9.6,5,3,0,0,0,3,3,0,185,2,2,0,true
0.9.6,106,7,26,0,0,0,1,2,185,2,2,34,false
0.9.0,10,6,0,0,0,6,14,0,37,2,6,4,false
0.9.6,3,1,0,0,0,0,0,1,185,2,2,0,true
0.9.0,9,2,0,0,1,1,1,2,45,3,7,1,false
0.9.6,3,1,0,0,0,0,0,1,168,1,1,0,false
0.9.6,3,1,0,0,0,1,0,0,185,2,3,0,true
0.9.6,4,2,2,0,0,0,0,0,168,1,3,0,false
0.9.6,5,3,0,1,0,3,1,0,168,1,2,0,false
0.9.6,3,1,0,0,0,0,0,0,185,1,1,0,false
0.9.0,3,1,0,0,0,1,0,0,45,2,7,0,false
0.9.6,5,2,0,0,0,2,0,0,168,1,1,0,false
0.9.6,4,1,0,0,0,1,0,0,185,1,1,0,false
0.9.6,3,1,1,0,0,0,3,0,168,1,1,0,false
0.9.0,4,2,0,0,0,2,6,1,45,1,4,0,false
0.9.6,3,3,0,0,0,1,1,0,185,2,3,0,true
0.9.0,17,9,7,0,0,1,0,6,45,3,10,1,false
0.9.0,3,1,0,0,0,1,0,0,37,2,4,0,false
0.9.6,1,1,0,0,0,0,1,0,185,1,1,0,false
0.9.6,3,2,0,0,0,0,0,1,94,2,2,0,false
0.9.6,11,6,2,0,0,0,2,6,185,4,14,4,true
0.9.0,3,1,0,0,0,1,0,0,37,2,4,0,false
0.9.0,3,1,0,0,0,1,0,0,0,1,4,0,false
0.9.0,1,1,0,0,0,0,0,0,45,3,6,0,false
0.9.6,3,1,0,0,0,1,14,1,185,2,5,0,false
0.9.0,2,1,0,0,0,0,0,0,37,2,2,0,false
0.9.6,9,3,2,0,0,3,0,0,185,4,13,0,true
0.9.0,3,1,0,0,0,1,1,1,37,2,4,0,false
0.9.0,67,25,16,0,3,2,0,23,45,3,11,8,false
0.9.6,6,1,1,0,0,1,1,1,168,2,5,0,false
0.9.0,10,2,2,0,0,2,0,0,45,1,4,5,false
0.9.6,3,1,0,0,0,0,0,0,185,2,5,0,false
0.9.0,4,2,0,0,0,1,0,1,0,2,7,0,false
0.9.6,3,1,0,0,0,1,0,0,168,1,1,0,false
0.9.0,3,1,0,0,0,1,6,0,45,3,11,0,false
0.9.0,3,1,1,0,0,0,0,0,37,2,3,0,false
0.9.6,26,10,8,1,0,2,4,2,94,1,1,1,false
0.9.6,3,1,0,0,0,0,0,3,185,2,3,0,true
0.9.0,3,2,0,0,0,1,0,0,37,2,6,0,false
0.9.0,3,1,0,0,0,1,0,0,45,3,7,0,false
0.9.6,8,2,0,0,1,1,0,2,185,2,2,1,true
0.9.0,17,4,4,1,0,1,0,1,0,1,5,0,false
0.9.6,16,8,3,0,0,5,4,8,185,4,14,3,true
0.9.0,3,1,0,0,0,1,0,0,37,2,5,0,false
0.9.0,3,1,0,0,0,1,0,1,37,2,4,0,false
0.9.6,1,1,0,0,0,0,1,0,185,1,1,0,false
0.9.6,3,1,0,0,0,1,0,1,185,2,4,0,false
0.9.0,3,1,0,0,0,1,0,0,45,3,11,0,false
0.9.6,3,1,0,0,0,0,0,0,185,2,4,0,false
0.9.6,11,2,6,0,0,0,1,1,168,2,2,2,false
0.9.0,2,1,0,0,0,0,1,0,0,1,5,0,false
0.9.0,3,1,0,0,0,0,0,1,37,2,4,0,false
0.9.6,3,1,0,0,0,1,0,0,185,2,2,0,true
0.9.6,1,1,0,0,0,0,1,0,185,2,2,0,true
0.9.0,20,9,5,0,0,0,1,5,37,2,3,2,false
0.9.0,3,1,0,0,0,1,0,0,45,1,3,0,false
0.9.6,4,1,0,0,0,1,0,0,185,1,1,0,false
0.9.6,3,1,0,0,0,0,0,0,185,1,1,0,false
0.9.6,3,1,0,0,0,0,1,0,185,1,3,0,true
0.9.6,3,1,0,0,0,1,0,0,185,1,1,0,false
0.9.6,3,1,0,0,0,1,0,0,168,3,5,0,false
0.9.0,3,1,0,0,0,1,0,1,45,3,13,0,false
0.9.0,3,1,0,0,0,0,0,0,45,2,5,0,false
0.9.6,8,2,0,0,1,1,0,2,185,2,2,1,true
0.9.6,3,1,0,0,0,1,0,0,185,2,4,0,false
0.9.0,19,13,6,0,0,4,2,2,37,3,3,1,false
0.9.0,1,1,0,0,0,0,1,0,0,1,8,0,false
0.9.6,2,1,0,0,0,0,0,0,94,2,2,0,false
0.9.6,7,4,1,0,0,3,8,0,168,2,6,0,false
0.9.0,4,4,0,0,0,1,1,0,45,4,9,0,false
0.9.6,10,2,4,0,0,0,1,0,168,2,7,0,false
0.9.0,3,1,0,0,0,1,2,0,0,1,5,0,false
0.9.6,5,5,2,0,0,1,0,0,21,2,2,0,false
0.9.0,3,1,0,0,0,1,0,0,37,2,6,0,false
0.9.6,3,1,0,0,0,1,0,0,185,4,14,0,true
0.9.6,3,1,0,0,0,1,1,1,185,3,5,0,true
0.9.0,3,1,0,0,0,1,0,1,45,2,7,0,false
0.9.6,14,8,3,0,0,2,1,7,185,3,6,1,true
0.9.0,13,4,1,0,0,0,0,0,37,2,5,0,false
0.9.6,3,1,0,0,0,0,0,0,168,3,5,0,false
0.9.0,3,1,0,0,0,1,4,2,45,3,8,0,false
0.9.0,3,1,1,0,0,0,2,0,45,2,6,0,false
0.9.6,20,8,6,0,0,2,2,26,185,3,6,9,true
0.9.6,2,1,0,0,0,0,0,0,168,3,3,0,false
0.9.0,1,1,0,0,0,0,2,0,45,3,8,0,false
0.9.6,3,1,0,0,0,1,0,0,185,4,19,0,true
0.9.6,5,2,0,0,0,2,0,2,168,1,1,0,false
0.9.6,18,8,6,0,0,3,0,8,168,3,6,1,false
0.9.6,1,1,0,0,0,0,1,0,168,1,1,0,true
0.9.0,4,2,0,0,0,1,0,2,45,3,13,0,false
0.9.0,3,1,0,0,0,1,0,0,45,3,6,0,false
0.9.6,5,3,2,2,0,2,1,1,185,4,13,0,true
0.9.6,13,5,3,0,0,3,2,4,168,2,2,3,false
0.9.6,10,3,2,0,1,1,3,0,168,2,5,2,true
0.9.0,5,1,1,0,0,1,1,2,45,3,8,0,false
0.9.6,5,2,1,0,0,0,0,1,168,2,7,1,false
0.9.6,4,3,0,0,0,2,2,0,185,1,1,0,false
0.9.0,3,1,1,0,0,0,0,0,0,2,12,0,false
0.9.6,3,1,0,0,0,1,18,0,185,2,5,0,false
0.9.6,3,1,0,0,0,1,0,0,185,1,1,0,false
0.9.6,3,2,0,0,0,1,7,0,185,4,13,0,true
0.9.0,3,1,0,0,0,0,0,0,45,3,13,0,false
0.9.6,3,1,0,0,0,1,1,0,185,2,6,0,true
0.9.0,16,5,1,0,1,1,4,6,45,3,13,0,false
0.9.6,3,1,0,0,0,1,2,1,185,3,10,0,false
0.9.6,3,1,0,0,0,0,0,0,185,2,4,0,false
0.9.0,7,1,1,0,0,1,1,0,45,2,6,0,false
0.9.6,3,1,0,0,0,0,0,1,168,2,2,0,false
0.9.6,3,1,0,0,0,0,0,0,185,2,5,0,false
0.9.0,4,4,0,0,0,0,0,1,0,1,4,0,false
0.9.0,3,1,0,0,0,1,8,1,37,2,5,0,false
0.9.6,8,2,3,0,0,2,0,4,185,1,1,0,true
0.9.6,3,1,0,0,0,1,0,1,168,2,2,0,false
0.9.6,22,16,6,1,0,3,2,9,185,2,5,5,false
0.9.0,2,1,0,0,0,0,0,0,45,1,5,0,false
0.9.6,5,2,1,0,0,2,0,0,185,2,2,0,true
0.9.0,3,1,0,0,0,1,0,0,0,1,4,0,false
0.9.0,3,1,0,0,0,1,0,0,45,3,13,0,false
0.9.6,3,1,0,0,0,1,0,0,168,2,2,0,false
0.9.0,3,1,0,1,0,1,0,0,45,2,8,1,false
0.9.6,1,1,0,0,0,0,0,0,185,2,2,0,false
0.9.0,3,1,0,0,0,1,12,0,45,3,8,0,false
0.9.6,3,1,0,0,0,1,0,0,185,3,4,0,false
0.9.0,3,1,1,0,0,0,0,0,0,1,4,0,false
0.9.0,17,5,4,0,1,1,2,5,45,2,7,1,false
0.9.0,3,1,0,0,0,1,0,0,37,2,4,0,false
0.9.6,3,1,1,0,0,0,0,0,185,3,5,0,false
0.9.6,1,1,0,0,0,0,0,0,185,2,5,0,false
0.9.6,3,1,1,0,0,0,3,0,168,1,1,0,false
0.9.6,7,2,1,0,0,1,1,2,185,3,10,0,false
0.9.6,10,4,3,0,0,1,2,3,185,4,16,3,false
0.9.6,3,1,0,0,0,1,0,0,185,1,1,0,false
0.9.0,17,7,3,0,0,2,1,9,45,3,11,0,false
0.9.6,8,2,0,0,1,1,0,2,185,2,2,1,true
0.9.0,11,5,8,0,0,0,0,8,37,3,9,0,false
0.9.0,5,3,1,0,0,2,2,3,45,3,8,2,false
0.9.0,3,1,0,0,0,1,3,1,45,3,10,0,false
0.9.0,12,6,3,2,0,1,3,0,0,1,5,1,false
0.9.0,4,3,0,0,0,0,1,0,45,2,6,0,false
0.9.6,5,3,0,0,0,1,1,2,185,3,4,0,false
0.9.0,3,2,0,0,0,1,0,1,37,1,2,0,false
0.9.0,3,1,0,0,0,1,28,0,45,3,11,0,false
0.9.0,4,2,1,0,0,0,1,5,45,2,8,0,false
0.9.6,3,1,0,0,0,1,0,0,185,1,1,0,false
0.9.0,3,1,0,0,0,0,0,1,37,2,2,0,false
0.9.6,3,1,0,0,0,1,0,0,185,4,19,0,true
0.9.6,3,1,0,0,0,1,1,0,185,4,19,0,true
0.9.0,3,1,0,0,0,1,4,0,0,2,9,0,false
0.9.0,3,1,0,0,0,1,1,0,45,1,7,0,false
0.9.6,3,2,1,0,0,0,0,0,185,2,5,0,false
0.9.6,3,1,0,0,0,0,0,0,185,2,4,0,false
0.9.6,12,4,5,0,0,0,1,1,185,4,13,0,true
0.9.0,3,1,0,0,0,1,0,0,37,2,6,0,false
0.9.0,3,1,0,0,0,1,0,0,45,2,4,0,false
0.9.0,10,2,1,0,1,1,1,6,45,2,7,0,false
0.9.0,4,1,1,0,0,1,1,0,45,3,8,0,false
0.9.0,3,1,0,0,0,1,3,1,37,1,2,0,false
0.9.0,4,1,0,0,0,0,0,2,37,2,4,0,false
0.9.6,3,1,0,0,0,0,0,0,168,3,5,0,false
0.9.0,3,1,1,0,0,0,0,0,45,3,7,0,false
0.9.0,1,1,0,0,0,0,0,0,45,3,8,0,false
0.9.0,3,1,0,0,0,1,0,1,37,2,3,0,false
0.9.6,1,1,0,0,0,0,0,0,185,2,5,0,false
0.9.0,1,1,0,0,0,0,0,0,45,3,6,0,false
0.9.0,1,1,0,0,0,0,1,0,45,1,4,0,false
0.9.0,4,1,1,0,0,0,0,7,37,2,5,0,false
0.9.6,1,1,0,0,0,0,1,0,185,1,1,0,false
0.9.0,1,1,0,0,0,0,2,0,45,3,6,0,false
0.9.0,4,1,2,0,0,0,0,1,45,1,4,1,false
0.9.0,9,3,0,0,1,2,1,2,45,1,4,1,false
0.9.0,3,1,0,0,0,1,16,0,0,1,7,0,false
0.9.0,9,3,1,0,1,2,1,1,37,2,3,1,false
0.9.0,3,1,0,0,0,1,0,0,37,1,3,0,false
0.9.6,3,1,0,0,0,1,2,0,185,2,5,0,false
0.9.0,3,1,0,0,0,1,0,0,0,1,4,0,false
0.9.6,8,4,2,0,0,2,0,4,185,2,3,3,true
0.9.0,4,2,1,1,0,1,2,0,0,1,7,0,false
0.9.0,3,1,0,0,0,1,0,1,45,2,4,0,false
0.9.0,3,1,0,0,0,1,0,0,45,2,5,0,false
0.9.6,3,3,0,0,0,1,21,2,185,2,5,0,false
0.9.0,3,1,0,0,0,1,0,0,37,2,3,0,false
0.9.0,34,16,2,0,1,7,0,23,45,3,11,10,false
0.9.6,5,2,1,0,0,1,0,1,185,1,3,0,false
0.9.6,3,2,0,0,0,1,0,0,185,3,5,2,false
0.9.6,1,1,0,0,0,0,1,0,185,2,4,0,false
0.9.6,5,3,0,0,0,1,1,0,185,1,2,0,false
0.9.6,3,1,0,0,0,1,1,0,185,3,6,0,true
0.9.6,4,1,1,0,0,0,0,0,168,2,7,0,false
0.9.6,1,1,0,0,0,0,0,0,185,2,5,0,false
0.9.6,3,1,0,0,0,0,1,1,185,3,6,0,true
0.9.0,3,1,0,0,0,1,0,3,45,2,7,0,false
0.9.6,3,1,0,0,0,1,0,1,168,2,2,1,false
0.9.0,3,1,0,0,0,0,5,0,37,3,9,0,false
0.9.6,3,1,0,0,0,1,1,1,168,2,2,0,false
0.9.6,3,1,0,0,0,1,7,0,168,2,3,0,false
0.9.0,3,1,0,0,0,0,0,0,0,1,5,0,false
0.9.6,19,7,1,0,1,4,0,7,185,4,19,5,true
0.9.0,4,2,0,0,0,2,2,1,37,2,6,0,false
0.9.6,3,1,0,0,0,1,0,0,168,2,2,0,false
0.9.6,4,2,1,0,0,0,0,2,168,2,7,0,false
0.9.6,4,1,0,0,0,0,0,2,185,3,10,0,false
0.9.6,212,81,61,2,0,56,12,55,185,3,9,14,false
0.9.0,4,2,0,0,0,0,0,0,37,2,6,0,false
0.9.0,3,1,0,0,0,1,0,0,0,1,4,0,false
0.9.6,3,1,0,0,0,0,0,1,185,2,4,0,false
0.9.0,3,1,0,0,0,1,10,2,45,3,11,0,false
0.9.6,4,1,0,0,0,0,0,2,185,3,10,0,false
0.9.0,4,1,0,0,0,0,0,2,45,3,13,0,false
0.9.6,1,1,0,0,0,0,2,0,185,1,2,0,false
0.9.0,3,1,0,0,0,0,0,0,45,3,7,0,false
0.9.0,3,1,1,0,0,0,2,0,0,1,4,0,false
0.9.6,3,1,0,0,0,0,0,0,185,2,4,0,false
0.9.0,3,2,0,0,0,1,3,1,45,3,7,0,false
0.9.0,4,1,0,0,0,0,0,2,37,3,6,0,false
0.9.0,3,1,0,0,0,1,0,0,37,2,6,0,false
0.9.0,3,1,1,0,0,0,0,0,37,2,3,0,false
0.9.0,7,1,4,0,0,1,2,1,45,2,7,0,false
0.9.6,3,1,0,0,0,1,2,0,185,2,2,0,false
0.9.6,3,1,0,0,0,0,1,1,185,3,6,0,true
0.9.0,3,1,0,0,0,0,0,0,45,2,5,0,false
0.9.6,3,1,0,0,0,0,2,0,185,2,5,0,false
0.9.6,1,1,0,0,0,0,0,0,185,1,2,0,false
0.9.6,4,3,1,0,0,1,0,0,168,1,1,0,false
0.9.0,3,1,0,0,0,1,0,1,45,2,4,0,false
0.9.0,1,1,0,0,0,0,5,0,45,2,5,0,false
0.9.0,3,1,0,0,0,1,0,0,0,1,4,0,false
0.9.0,3,1,0,0,0,0,0,1,45,2,8,0,false
0.9.0,3,1,0,0,0,1,0,0,45,3,7,0,false
0.9.0,3,1,1,0,0,0,0,0,37,2,2,0,false
0.9.0,9,4,1,0,0,3,1,0,45,3,8,0,false
0.9.6,3,1,0,0,0,0,0,0,185,2,5,0,false
0.9.6,3,1,1,0,0,0,0,0,185,3,5,0,false
0.9.6,18,7,1,0,1,3,1,2,185,4,19,3,true
0.9.0,27,15,13,0,0,2,0,4,45,3,7,8,false
0.9.6,4,1,0,0,0,1,0,1,185,1,2,0,false
0.9.6,3,1,0,0,0,0,1,1,185,4,14,0,true
0.9.6,5,4,1,1,0,2,0,0,168,1,1,0,false
0.9.6,1,1,0,0,0,0,0,0,185,2,2,0,false
0.9.0,21,11,10,0,0,3,0,3,37,2,6,0,false
0.9.6,3,1,0,0,0,1,0,1,185,2,2,0,true
0.9.0,3,1,1,0,0,0,0,0,37,1,2,0,false
0.9.6,5,3,1,0,0,2,0,1,185,2,2,1,true
0.9.0,3,1,1,0,0,0,0,0,37,2,2,0,false
0.9.6,6,3,3,0,0,2,1,1,185,2,2,0,false
0.9.6,3,1,0,0,0,0,0,1,168,3,5,0,false
0.9.6,7,1,1,0,0,1,0,7,185,4,16,0,false
0.9.6,1,1,0,0,0,0,0,0,185,2,5,0,false
0.9.6,32,19,0,0,0,10,1,0,185,2,5,1,false
0.9.6,3,1,0,0,0,0,0,0,185,2,3,0,true
0.9.6,1,1,0,0,0,0,0,0,185,2,4,0,false
0.9.6,3,1,0,0,0,1,0,0,168,2,7,0,false
0.9.0,5,2,0,0,0,2,0,3,45,3,11,0,false
0.9.6,3,1,0,0,0,1,0,0,185,1,1,0,false
0.9.6,3,1,0,0,0,1,0,1,185,1,3,0,true
0.9.6,3,1,0,0,0,1,2,0,168,2,5,0,false
0.9.6,3,1,0,0,0,1,1,0,168,1,1,0,true
0.9.0,3,1,1,0,0,0,0,0,37,1,2,0,false
0.9.6,8,2,0,0,1,1,0,2,185,2,2,1,true
0.9.6,11,5,5,0,0,1,1,4,168,1,1,4,true
0.9.6,3,1,0,0,0,0,0,3,185,2,3,0,true
0.9.0,3,1,1,0,0,0,0,0,37,2,2,0,false
0.9.6,59,19,19,1,2,0,1,14,185,4,19,4,true
0.9.6,3,1,0,0,0,0,0,0,185,2,4,0,false
0.9.0,39,11,7,1,0,2,5,1,37,2,3,5,false
0.9.0,3,1,0,0,0,0,0,1,37,1,2,0,false
0.9.6,6,5,0,0,0,4,0,3,185,2,3,0,true
0.9.0,12,5,3,0,1,2,0,3,45,2,10,1,false
0.9.0,4,2,1,0,0,1,10,0,37,1,2,0,false
0.9.0,32,7,10,0,1,1,1,10,37,1,2,0,false
0.9.6,1,1,0,0,0,0,0,0,185,2,5,0,false
0.9.0,3,2,0,0,0,1,3,1,0,1,4,0,false
0.9.6,2,1,0,0,0,0,0,0,168,2,5,0,true
0.9.0,20,16,10,0,0,4,2,5,45,3,10,6,false
0.9.0,3,1,0,0,0,1,0,0,45,3,6,0,false
0.9.6,4,1,2,0,0,0,0,0,78,2,2,0,false
0.9.6,3,1,1,0,0,0,0,0,168,3,3,0,false
0.9.0,3,4,0,0,0,0,1,1,37,2,3,0,false
0.9.6,4,2,0,0,0,2,0,0,185,3,10,0,true
0.9.6,3,1,0,0,0,1,0,0,185,2,4,0,false
0.9.0,3,1,1,0,0,0,0,0,37,2,4,0,false
0.9.0,79,38,26,0,0,1,0,25,45,2,6,0,false
0.9.0,3,1,0,0,0,1,0,1,45,1,4,0,false
0.9.0,3,1,0,0,0,1,0,0,45,3,13,0,false
0.9.0,1,1,0,0,0,0,1,0,45,1,4,0,false
0.9.6,3,1,0,0,0,1,0,1,168,2,3,0,false
0.9.6,5,1,1,0,0,1,1,0,168,1,2,3,false
0.9.6,48,12,5,0,0,2,1,5,185,1,1,55,false
0.9.0,14,6,6,0,0,1,2,0,45,2,6,0,false
0.9.6,3,1,0,0,0,1,0,0,185,1,1,0,false
0.9.6,5,2,2,0,0,1,0,0,168,2,2,0,false
0.9.0,3,1,0,0,0,0,0,1,37,2,4,0,false
0.9.0,3,2,1,0,0,0,2,1,37,2,4,0,false
0.9.6,5,1,1,0,0,1,0,3,185,4,19,2,true
0.9.0,9,2,0,0,1,1,0,2,45,3,11,0,false
0.9.6,5,2,0,0,0,2,0,1,185,4,19,0,true
0.9.0,6,2,4,0,0,0,1,2,37,2,2,0,false
0.9.0,23,19,9,0,0,7,2,21,45,3,13,9,false
0.9.0,3,1,0,0,0,0,7,0,45,3,7,0,false
0.9.0,3,1,0,0,0,1,0,0,45,3,6,0,false
0.9.6,22,8,7,0,1,5,1,0,185,1,1,3,false
0.9.6,3,1,1,0,0,0,0,0,94,1,1,0,false
0.9.0,3,1,0,0,0,0,0,0,0,1,6,0,false
0.9.0,3,2,0,0,0,0,0,1,0,2,9,0,false
0.9.0,5,1,2,0,0,0,0,0,45,1,4,0,false
0.9.0,3,1,0,0,0,0,2,2,37,2,6,0,false
0.9.0,25,16,7,0,2,4,3,9,0,2,13,5,false
0.9.0,5,3,2,0,0,1,0,1,0,1,8,0,false
0.9.0,9,1,1,0,1,1,0,3,0,1,5,0,false
0.9.6,26,9,7,0,3,2,2,3,94,1,1,6,false
0.9.6,4,3,0,0,0,2,2,0,185,4,13,0,true
0.9.0,3,1,0,0,0,1,0,1,45,1,3,0,false
0.9.6,3,1,0,0,0,1,2,0,168,1,3,0,false
0.9.0,17,10,1,0,1,1,1,12,45,3,8,0,false
0.9.6,3,3,0,0,0,1,4,0,185,2,3,0,true
0.9.0,6,4,0,0,0,3,8,6,37,2,5,1,false
0.9.0,3,1,1,0,0,0,0,0,45,2,6,0,false
0.9.0,3,1,1,0,0,0,0,0,45,2,6,0,false
0.9.0,12,4,0,0,0,3,1,1,45,2,6,0,false
0.9.0,3,1,0,0,0,1,0,0,0,1,5,0,false
0.9.6,3,1,0,0,0,1,2,1,185,3,9,0,false
0.9.6,1,1,0,0,0,0,2,0,168,1,1,0,false
0.9.0,3,1,1,0,0,0,0,0,37,1,2,0,false
0.9.0,5,1,1,0,0,1,2,2,45,2,8,0,false
0.9.6,6,3,0,0,0,2,1,0,185,3,5,0,true
0.9.0,10,3,4,0,0,2,0,0,0,1,5,0,false
0.9.0,3,1,0,0,0,0,0,0,0,1,4,0,false
0.9.0,3,1,0,0,0,1,0,1,45,3,13,0,false
0.9.0,3,1,1,0,0,0,2,0,45,3,8,0,false
0.9.6,3,1,0,0,0,0,0,0,168,3,5,0,false
0.9.0,2,1,0,0,0,0,1,0,0,1,5,0,false
0.9.6,3,1,0,0,0,1,0,2,185,2,3,0,true
0.9.6,4,1,0,0,0,0,0,2,185,3,10,0,false
0.9.0,3,1,0,0,0,1,0,0,45,2,4,0,false
0.9.0,3,1,0,0,0,1,0,0,45,3,7,0,false
0.9.0,13,1,1,0,1,1,1,4,45,3,13,0,false
0.9.0,3,1,1,0,0,0,2,0,45,3,8,0,false
0.9.6,3,1,0,0,0,1,10,0,185,4,19,0,true
0.9.6,2,1,0,0,0,0,0,0,168,1,1,0,false
0.9.6,3,1,0,0,0,1,0,0,185,1,1,0,false
0.9.0,4,1,1,0,0,0,1,0,37,1,2,0,false
0.9.6,5,2,1,0,0,1,4,1,168,2,2,0,false
0.9.0,5,3,1,0,0,2,0,1,0,1,6,0,false
0.9.0,8,3,4,0,0,0,2,0,45,3,10,0,false
0.9.6,5,2,0,0,0,2,3,1,185,4,19,0,true
0.9.6,3,1,0,0,0,0,0,0,185,2,5,0,false
0.9.0,3,1,0,0,0,1,0,0,45,3,13,0,false
0.9.6,31,7,8,0,2,1,0,3,168,1,1,5,false
0.9.0,3,1,0,0,0,1,0,0,0,1,4,0,false
0.9.0,5,1,1,0,0,1,1,5,37,1,2,3,false
0.9.0,3,1,0,0,0,1,0,0,0,1,4,0,false
0.9.6,4,1,0,0,0,0,0,2,185,3,10,0,false
0.9.0,5,1,0,0,0,0,0,1,45,2,5,0,false
0.9.6,3,1,0,0,0,0,0,1,185,2,2,0,true
0.9.0,3,1,0,0,0,1,0,0,37,1,2,0,false
0.9.0,9,2,0,0,1,1,0,2,45,3,7,1,false
0.9.0,14,2,2,0,1,1,0,4,37,2,2,0,false
0.9.6,10,5,1,0,0,3,0,5,185,3,10,2,false
0.9.6,14,7,1,0,1,5,0,1,168,3,6,5,false
0.9.0,3,1,0,0,0,1,0,0,0,1,4,0,false
0.9.0,3,1,0,0,0,1,4,0,0,1,5,0,false
0.9.0,13,15,9,0,0,2,1,0,45,3,11,2,false
0.9.6,4,2,0,0,0,1,2,1,185,4,19,0,true
0.9.0,3,1,0,0,0,1,0,0,45,1,5,0,false
0.9.0,3,1,0,0,0,1,1,0,45,2,8,0,false
0.9.0,3,1,1,0,0,0,0,0,45,3,11,0,false
0.9.6,3,1,0,0,0,0,0,0,185,2,5,0,false
0.9.0,3,1,0,0,0,1,0,0,0,1,4,0,false
0.9.0,3,1,0,0,0,1,0,0,0,1,6,0,false
0.9.0,40,26,15,0,0,1,2,16,37,1,2,2,false
0.9.0,9,2,0,0,1,1,1,2,45,3,7,1,false
0.9.6,8,2,0,0,1,1,0,2,185,2,2,1,true
0.9.0,23,5,11,1,0,1,3,7,45,3,10,7,false
0.9.6,5,1,2,0,0,0,0,0,185,2,5,2,false
0.9.0,3,1,0,0,0,0,20,2,0,1,5,0,false
0.9.6,6,4,4,0,0,0,0,1,168,3,5,2,false
0.9.0,3,1,0,0,0,0,0,0,0,1,4,0,false
0.9.0,3,1,0,0,0,0,0,0,0,1,6,0,false
0.9.6,1,1,0,0,0,0,2,0,168,1,1,0,false
0.9.6,4,2,2,0,0,0,4,0,185,4,14,0,true
0.9.6,1,1,0,0,0,0,0,0,185,2,5,0,false
0.9.0,28,10,5,0,0,1,1,4,45,2,6,1,false
0.9.6,4,1,0,0,0,0,0,2,185,3,10,0,false
0.9.6,3,1,0,0,0,1,0,0,185,3,5,0,false
0.9.0,9,3,5,0,0,1,1,0,45,2,6,0,false
0.9.6,1,1,0,0,0,0,0,0,185,2,5,0,false
0.9.6,1,1,0,0,0,0,1,0,185,1,2,0,false
0.9.6,3,1,0,0,0,0,0,0,185,2,6,0,true
0.9.0,3,1,0,0,0,0,0,3,45,2,7,0,false
0.9.0,3,1,0,0,0,1,3,0,45,3,11,0,false
0.9.6,3,1,0,0,0,1,0,0,83,2,2,0,false
0.9.0,18,8,6,0,0,3,0,8,37,2,3,1,false
0.9.0,3,1,0,0,0,1,0,0,37,2,4,0,false
0.9.6,3,1,0,0,0,0,0,1,168,2,3,0,false
0.9.0,3,1,0,0,0,0,2,2,45,3,13,0,false
0.9.0,3,1,0,0,0,1,0,0,45,3,11,0,false
0.9.0,3,1,0,0,0,1,1,0,0,1,4,0,false
0.9.0,3,1,0,0,0,1,0,0,45,1,7,0,false
0.9.6,3,1,0,0,0,1,0,0,168,2,2,0,false
0.9.6,4,2,0,0,0,2,1,1,185,1,1,0,true
0.9.0,3,1,0,0,0,1,1,1,45,3,5,0,false
0.9.0,16,6,7,0,0,1,0,2,37,2,3,1,false
0.9.0,1,1,0,0,0,0,2,0,0,2,12,0,false
0.9.6,3,1,0,0,0,0,0,0,185,2,5,0,false
0.9.0,4,1,0,0,0,0,0,1,45,3,13,0,false
0.9.6,3,1,0,0,0,1,0,1,185,1,3,1,true
0.9.0,9,3,0,0,1,2,0,2,45,1,4,1,false
0.9.6,3,1,0,0,0,1,0,0,185,1,2,0,false
0.9.0,25,11,5,0,1,6,0,6,45,4,9,3,false
0.9.6,3,1,0,0,0,0,0,1,168,1,1,0,false
0.9.0,4,1,0,0,0,0,0,1,0,1,8,0,false
0.9.0,3,1,0,0,0,1,0,0,0,1,4,0,false
0.9.6,3,1,0,0,0,1,0,0,168,3,5,0,false
0.9.0,24,22,0,0,0,21,0,0,45,1,4,0,false
0.9.6,3,1,0,0,0,0,1,1,185,3,6,0,true
0.9.0,3,1,0,0,0,1,0,0,0,1,4,0,false
0.9.0,3,1,0,0,0,0,0,2,0,1,6,0,false
0.9.6,3,1,0,0,0,1,0,0,185,4,19,0,true
0.9.6,3,1,0,0,0,1,0,0,168,1,3,0,false
0.9.0,3,1,0,0,0,0,0,0,45,2,5,0,false
0.9.0,9,1,0,0,1,1,0,2,37,3,9,0,false
0.9.6,1,1,0,0,0,0,0,0,185,2,5,0,false
0.9.0,3,1,0,0,0,1,0,0,37,1,2,0,false
0.9.6,1,1,0,0,0,0,1,0,168,1,2,0,false
0.9.0,3,1,0,0,0,0,0,0,0,1,6,0,false
0.9.6,3,1,0,0,0,0,0,0,168,3,5,0,false
0.9.0,17,6,6,0,1,1,2,6,45,2,5,5,false
0.9.6,3,1,0,0,0,0,0,0,168,3,5,0,false
0.9.0,12,4,3,0,0,0,1,1,37,1,2,2,false
0.9.0,10,9,2,0,0,0,3,2,45,3,13,0,false
0.9.0,1,1,0,0,0,0,1,0,0,1,4,0,false
0.9.6,9,6,0,0,1,3,2,1,185,4,13,0,false
0.9.0,6,2,2,0,0,1,1,0,37,2,3,3,false
0.9.6,3,1,0,0,0,0,0,1,168,2,3,0,false
0.9.6,3,1,0,0,0,0,0,0,185,2,5,0,false
0.9.0,4,1,1,0,0,1,1,1,0,1,6,1,false
0.9.6,3,1,0,0,0,1,2,0,185,4,19,0,true
0.9.6,3,1,0,0,0,1,15,0,94,1,1,0,false
0.9.0,3,1,0,0,0,1,0,0,0,1,4,0,false
0.9.6,4,2,1,0,0,1,3,1,168,2,3,0,false
0.9.6,3,1,0,0,0,1,0,3,185,2,3,0,true
0.9.6,3,1,0,0,0,1,0,0,185,2,2,0,true
0.9.6,3,2,1,0,0,0,0,0,185,1,1,0,false
0.9.0,5,2,1,0,0,1,3,0,45,4,9,0,false
0.9.0,5,2,1,0,0,1,4,3,45,2,5,0,false
0.9.0,3,1,0,0,0,1,1,0,0,1,5,0,false
0.9.0,3,1,0,0,0,1,7,0,37,2,2,0,false
0.9.0,1,1,0,0,0,0,2,0,45,1,4,0,false
0.9.6,29,10,6,0,3,1,0,4,168,3,6,0,false
0.9.6,8,4,4,0,0,1,0,1,168,2,2,1,false
0.9.0,3,1,0,0,0,1,0,2,45,2,6,0,false
0.9.0,3,1,0,0,0,1,0,0,0,1,6,0,false
0.9.0,5,2,2,0,0,0,2,2,45,1,4,0,false
0.9.6,3,1,0,0,0,1,0,0,168,2,2,0,false
0.9.0,3,1,0,0,0,0,0,0,45,2,5,0,false
0.9.0,13,6,2,0,0,1,1,5,45,2,5,1,false
0.9.6,3,1,0,0,0,0,0,0,185,2,5,0,false
0.9.6,3,1,0,0,0,0,0,0,168,3,5,0,false
0.9.0,3,1,0,0,0,1,2,0,45,2,8,0,false
0.9.0,1,1,0,0,0,0,4,0,45,1,5,0,false
0.9.6,4,2,1,0,0,0,2,0,185,2,4,0,false
0.9.0,3,2,0,0,0,0,0,1,45,3,13,0,false
0.9.6,5,3,2,0,0,1,0,0,185,3,5,0,false
0.9.0,3,1,0,0,0,1,3,1,45,3,10,0,false
0.9.6,2,1,0,0,0,0,0,0,185,1,1,0,false
0.9.0,1,1,0,0,0,0,2,0,45,1,4,0,false
0.9.0,3,1,0,0,0,1,0,0,0,1,4,0,false
0.9.0,3,1,0,0,0,1,0,0,45,3,11,0,false
0.9.0,22,6,2,0,2,1,2,3,37,2,3,2,false
0.9.0,1,1,0,0,0,0,0,0,45,3,6,0,false
0.9.6,3,1,0,0,0,0,0,0,168,3,5,0,false
0.9.0,4,1,0,0,0,1,3,2,45,2,6,0,false
0.9.0,6,2,1,0,0,0,1,3,45,2,6,1,false
0.9.6,6,5,1,0,0,3,0,0,185,4,19,0,true
0.9.0,2,1,0,0,0,0,0,0,45,2,7,0,false
0.9.6,8,2,0,0,1,1,0,2,168,1,3,0,false
0.9.0,3,1,0,0,0,1,0,0,37,2,3,0,false
0.9.0,10,2,4,0,0,0,0,0,37,2,6,0,false
0.9.6,10,4,4,0,0,1,3,3,168,1,1,1,false
0.9.0,4,2,0,0,0,2,1,2,45,3,11,0,false
0.9.6,3,1,0,0,0,1,0,1,185,3,10,0,false
0.9.0,1,1,0,0,0,0,0,0,45,3,8,0,false
0.9.6,4,2,1,0,0,0,0,1,168,1,1,0,false
0.9.0,60,14,15,0,4,5,4,9,45,1,4,0,false
0.9.0,3,1,0,0,0,0,0,2,0,2,9,0,false
0.9.6,3,1,0,0,0,1,1,1,185,3,5,0,true
0.9.6,3,1,0,0,0,1,0,1,168,3,4,0,false
0.9.6,3,1,0,0,0,1,0,0,185,4,19,0,true
0.9.0,3,1,0,0,0,1,24,1,37,1,2,0,false
0.9.0,7,1,1,0,0,1,3,3,37,2,4,0,false
0.9.0,3,1,0,0,0,0,0,1,0,2,12,1,false
0.9.6,3,1,1,0,0,0,0,0,168,2,2,0,false
0.9.6,3,1,0,0,0,1,0,0,168,1,1,0,false
0.9.0,9,3,0,0,1,1,1,2,45,1,4,1,false
0.9.0,4,3,0,0,0,2,2,0,45,1,4,0,false
0.9.6,7,3,1,0,0,2,7,1,168,2,7,1,false
0.9.0,3,1,0,0,0,1,0,1,45,3,13,0,false
0.9.6,3,2,0,0,0,0,1,0,168,1,1,0,false
0.9.6,3,1,0,0,0,1,10,2,185,4,7,0,false
0.9.6,19,9,3,0,0,0,1,6,185,1,2,6,true
0.9.0,4,1,0,0,0,0,0,2,37,3,6,0,false
0.9.0,4,2,2,0,0,0,0,0,37,2,6,0,false
0.9.0,2,1,0,0,0,0,0,0,37,2,2,0,false
0.9.0,1,1,0,0,0,0,1,0,45,3,8,0,false
0.9.6,3,1,0,0,0,0,0,1,168,1,1,0,false
0.9.6,14,3,2,0,1,1,0,3,185,2,4,0,false
0.9.6,3,1,0,0,0,1,0,0,185,1,2,0,false
0.9.6,5,2,0,0,0,2,0,1,185,4,19,0,true
0.9.6,1,1,0,0,0,0,2,0,185,1,2,0,false
0.9.6,9,1,0,0,1,0,1,2,185,4,19,0,true
0.9.0,3,1,1,0,0,0,0,0,45,2,6,0,false
0.9.6,8,3,3,0,0,1,0,0,168,3,5,1,false
0.9.0,3,2,0,0,0,1,1,0,37,1,2,0,false
0.9.6,1,1,0,0,0,0,2,0,168,2,2,0,false
0.9.0,3,1,0,0,0,1,0,1,37,3,6,0,false
0.9.6,3,1,0,0,0,0,0,0,168,3,5,0,false
0.9.0,1,1,0,0,0,0,1,0,45,3,6,0,false
0.9.0,14,4,3,0,1,0,0,7,45,3,11,4,false
0.9.0,11,5,4,0,0,1,1,4,45,3,8,0,false
0.9.6,6,3,1,0,0,3,0,2,168,2,5,1,true
0.9.6,5,3,1,0,0,1,2,0,185,3,9,0,false
0.9.0,11,5,4,0,0,1,10,4,45,3,8,3,false
0.9.6,8,2,0,0,1,1,8,1,83,2,2,1,false
0.9.0,3,1,0,0,0,1,0,1,0,2,9,0,false
0.9.0,3,1,0,0,0,1,0,0,45,2,8,1,false
0.9.6,1,1,0,0,0,0,0,0,185,2,4,0,false
0.9.0,5,1,0,0,0,0,0,0,37,2,5,0,false
0.9.0,3,1,0,0,0,1,0,0,0,1,4,0,false
0.9.0,3,1,0,0,0,1,0,2,45,2,7,0,false
0.9.6,3,1,0,0,0,1,0,0,185,1,2,0,false
0.9.6,5,3,0,0,0,3,3,0,185,2,3,0,true
0.9.6,3,1,0,0,0,1,16,0,185,2,5,0,false
0.9.6,4,1,1,1,0,1,1,0,0,2,2,1,false
0.9.6,3,1,1,0,0,0,0,0,185,2,2,0,false
0.9.6,3,1,0,0,0,0,0,0,168,3,5,0,false
0.9.6,3,1,0,0,0,1,0,0,168,3,5,0,false
0.9.0,3,1,0,0,0,1,0,0,0,1,4,0,false
0.9.6,3,1,0,0,0,1,0,1,168,3,4,0,false
0.9.0,3,1,0,0,0,1,0,1,37,2,4,0,false
0.9.6,11,6,1,0,1,0,0,3,185,4,19,0,true
0.9.6,9,7,0,0,0,3,4,5,185,4,14,1,true
0.9.6,3,1,0,0,0,1,0,0,168,1,1,0,false
0.9.6,8,2,0,0,1,1,0,2,185,2,2,1,true
0.9.0,3,1,0,0,0,1,0,0,0,1,4,0,false
0.9.6,3,1,0,0,0,1,0,0,185,2,5,0,false
0.9.6,3,1,0,0,0,0,0,0,168,2,3,0,false
0.9.0,2,1,0,0,0,0,0,0,37,2,3,0,false
0.9.6,3,1,0,0,0,0,0,0,185,2,4,0,false
0.9.0,3,1,0,0,0,1,0,0,37,2,2,0,false
0.9.0,1,1,0,0,0,0,2,0,45,3,8,0,false
0.9.0,1,1,0,0,0,0,1,0,37,2,3,0,false
0.9.0,12,6,3,0,0,1,0,4,45,2,7,1,false
0.9.6,3,1,0,0,0,1,0,0,185,2,4,0,false
0.9.6,3,1,1,0,0,0,1,0,168,1,3,0,false
0.9.0,3,1,0,0,0,1,1,0,37,2,4,0,false
0.9.6,1,1,0,0,0,0,0,0,185,2,5,0,false
0.9.6,3,1,0,0,0,1,0,1,185,3,10,0,false
0.9.0,3,1,1,0,0,0,0,0,45,1,7,0,false
0.9.6,11,12,2,0,0,2,1,2,185,2,5,2,false
0.9.0,3,1,1,0,0,0,4,0,45,3,10,0,false
0.9.0,5,4,1,0,0,1,0,3,45,2,7,1,false
0.9.0,3,1,0,0,0,1,0,0,45,2,4,0,false
0.9.6,3,1,1,0,0,0,0,0,168,2,5,0,false
0.9.6,1,1,0,0,0,0,1,0,185,1,2,0,false
0.9.6,11,5,6,0,0,0,0,3,168,1,4,6,false
0.9.6,4,2,0,0,0,2,0,0,168,2,3,1,false
0.9.6,3,1,0,0,0,0,0,2,168,1,1,0,false
0.9.0,3,1,0,0,0,0,0,0,0,1,4,0,false
0.9.0,11,3,2,0,1,0,2,1,45,3,13,0,false
0.9.6,3,1,0,0,0,1,0,0,185,1,2,0,false
0.9.6,15,6,8,3,0,1,3,7,185,1,2,1,true
0.9.6,3,1,0,0,0,1,0,1,168,2,3,0,false
0.9.0,3,1,0,0,0,1,1,0,45,3,8,0,false
0.9.6,3,1,0,0,0,1,1,1,94,2,2,0,false
0.9.0,8,3,2,0,0,0,1,3,0,1,5,0,false
0.9.0,1,1,0,0,0,0,4,0,45,1,3,0,false
0.9.6,13,3,0,0,0,0,0,1,168,1,1,0,false
0.9.6,1,1,0,0,0,0,1,0,168,1,1,0,false
0.9.6,11,5,2,0,0,1,1,5,168,2,7,3,false
0.9.0,3,1,0,0,0,1,1,1,45,3,13,0,false
0.9.0,3,1,0,0,0,1,1,0,45,1,4,0,false
0.9.6,3,1,0,0,0,0,0,2,185,3,8,0,false
0.9.0,3,1,0,0,0,1,0,0,0,1,4,0,false
0.9.6,15,8,4,1,1,2,1,8,185,2,2,3,true
0.9.0,3,1,1,0,0,0,0,0,45,2,5,0,false
0.9.6,3,2,0,0,0,0,0,1,185,3,10,0,false
0.9.0,3,1,0,0,0,1,0,0,0,1,4,0,false
0.9.0,3,1,0,0,0,1,0,2,37,2,4,1,false
0.9.0,4,2,0,1,0,1,0,2,0,1,8,0,false
0.9.6,3,1,0,0,0,0,0,0,185,2,5,0,false
0.9.6,8,10,0,0,0,0,14,0,185,4,7,1,false
0.9.6,16,5,3,0,1,2,1,3,185,1,2,0,true
0.9.6,3,1,0,0,0,0,1,1,168,2,3,0,false
0.9.0,3,1,0,0,0,1,1,2,45,3,8,0,false
0.9.6,39,17,3,0,1,2,2,15,185,4,14,7,true
0.9.6,3,1,0,0,0,1,0,0,185,3,5,0,false
0.9.6,4,3,0,0,0,0,11,1,185,4,14,1,true
0.9.6,3,1,0,0,0,1,2,0,94,1,1,0,false
0.9.0,7,2,4,0,0,0,4,1,45,3,13,0,false
0.9.6,8,4,1,0,0,0,5,3,168,2,7,0,false
0.9.0,6,2,0,0,0,0,0,0,0,1,8,0,false
0.9.6,3,1,0,0,0,1,1,0,94,1,1,0,false
0.9.0,8,4,3,0,0,1,1,1,37,1,2,2,false
0.9.6,3,1,0,0,0,0,0,0,168,3,5,0,false
0.9.0,13,5,2,0,1,3,0,3,45,2,8,1,false
0.9.6,6,4,0,0,0,4,2,0,168,1,1,0,false
0.9.6,3,1,0,0,0,1,0,0,185,2,2,0,true
0.9.0,3,1,0,0,0,0,0,0,0,1,4,0,false
0.9.0,3,2,0,0,0,1,0,0,45,3,10,0,false
0.9.0,3,1,0,0,0,0,0,0,45,1,3,0,false
0.9.6,13,15,9,0,0,2,1,0,185,4,19,2,true
0.9.0,1,1,0,0,0,0,1,0,37,1,2,0,false
0.9.6,11,5,0,0,1,4,0,2,94,1,1,0,false
0.9.0,6,4,0,0,0,3,2,0,0,1,8,0,false
0.9.6,3,1,0,0,0,0,0,1,168,1,1,0,false
0.9.6,5,3,2,0,0,0,7,2,185,3,9,1,false
0.9.6,3,1,0,0,0,0,0,0,168,3,5,0,false
0.9.6,4,1,0,0,0,1,0,0,83,2,2,0,false
0.9.6,6,2,0,0,0,2,0,0,185,4,16,0,false
0.9.6,3,1,0,0,0,0,0,0,168,3,5,0,false
0.9.0,3,1,0,0,0,1,6,0,45,2,6,0,false
0.9.0,3,1,0,0,0,1,0,0,45,2,4,0,false
0.9.6,3,1,0,0,0,1,0,0,185,2,5,0,false
0.9.6,3,1,0,0,0,0,0,0,185,2,4,0,false
0.9.0,18,3,3,0,2,0,0,5,45,3,11,0,false
0.9.6,3,1,0,0,0,0,0,0,185,4,14,0,true
0.9.6,3,1,0,0,0,1,0,0,168,2,2,0,false
0.9.0,1,1,0,0,0,0,2,0,45,2,5,0,false
0.9.0,3,1,0,0,0,1,1,0,45,3,8,0,false
0.9.0,19,5,7,2,0,2,3,2,0,1,4,1,false
0.9.0,4,3,1,0,0,0,0,1,0,1,7,0,false
0.9.0,18,3,5,0,0,0,1,0,45,1,4,10,false
0.9.6,3,1,0,0,0,1,0,0,168,1,1,0,false
0.9.6,3,1,1,0,0,0,1,0,185,1,2,0,false
0.9.6,4,3,0,0,0,2,0,0,168,1,1,0,true
0.9.6,3,1,0,0,0,0,0,0,185,2,5,0,false
0.9.0,3,1,0,0,0,1,0,0,0,1,4,0,false
0.9.0,20,9,8,0,0,2,0,16,45,3,11,3,false
0.9.6,3,1,1,0,0,0,0,0,168,1,1,0,false
0.9.6,3,1,0,0,0,1,0,0,185,1,1,0,false
0.9.6,12,4,3,0,1,2,0,0,168,1,1,1,false
0.9.0,3,1,0,0,0,0,0,0,45,2,5,0,false
0.9.6,4,3,0,0,0,2,0,1,168,1,2,1,false
0.9.6,8,3,0,0,0,3,1,0,168,2,5,1,true
0.9.0,4,1,0,0,0,0,0,2,37,2,3,0,false
0.9.0,3,2,0,0,0,1,3,1,45,2,5,0,false
0.9.0,3,2,0,0,0,0,1,0,45,2,6,0,false
0.9.0,3,1,0,0,0,1,1,1,37,2,3,0,false
0.9.6,8,2,0,0,1,1,0,2,185,2,2,1,true
0.9.6,8,1,3,0,0,1,0,2,168,1,1,0,false
0.9.0,1,1,0,0,0,0,5,0,45,3,6,0,false
0.9.0,35,7,7,0,0,1,0,14,37,2,4,14,false
0.9.6,5,3,2,0,0,1,0,1,94,1,1,0,false
0.9.0,3,1,0,0,0,1,0,1,45,2,7,0,false
0.9.6,3,1,0,0,0,1,0,0,185,2,4,0,false
0.9.0,3,1,0,0,0,0,0,0,0,1,6,0,false
0.9.0,8,4,1,0,0,0,2,0,37,2,6,0,false
0.9.0,3,1,0,0,0,1,0,0,37,3,6,0,false
0.9.0,2,1,0,0,0,0,1,0,45,4,8,0,false
0.9.0,5,2,0,0,0,2,0,3,45,3,11,0,false
0.9.6,5,2,2,0,0,1,1,0,168,1,2,2,false
0.9.0,1,1,0,0,0,0,0,0,45,3,8,0,false
0.9.0,3,1,0,0,0,1,0,2,0,1,7,0,false
0.9.0,3,1,0,0,0,1,0,0,45,2,4,0,false
0.9.6,3,1,0,1,0,1,0,2,168,3,5,0,false
0.9.0,2,1,0,0,0,0,1,0,45,3,8,0,false
0.9.6,3,1,0,0,0,0,0,0,185,1,1,0,false
0.9.6,1,1,0,0,0,0,0,0,185,2,4,0,false
0.9.0,1,1,0,0,0,0,0,0,45,3,6,0,false
0.9.6,5,5,1,0,0,3,1,0,168,1,2,0,false
0.9.0,1,1,0,0,0,0,1,0,0,1,4,0,false
0.9.6,12,4,5,0,0,0,1,0,168,1,1,1,false
0.9.6,3,1,0,0,0,1,0,1,185,1,2,0,false
0.9.6,3,1,0,0,0,0,0,0,185,2,4,0,false
0.9.6,3,1,0,0,0,1,0,1,185,3,10,0,false
0.9.6,1,1,0,0,0,0,1,0,185,2,2,0,true
0.9.6,16,1,1,0,0,0,0,19,185,2,2,0,false
0.9.6,14,4,0,0,1,0,0,2,185,1,1,3,false
0.9.0,3,1,0,0,0,0,0,0,0,1,6,0,false
0.9.6,3,1,0,0,0,1,4,0,185,1,1,0,true
0.9.0,3,2,0,0,0,0,0,0,37,2,5,0,false
0.9.0,10,2,5,3,0,1,1,0,0,2,5,0,false
0.9.6,6,3,2,0,0,2,1,0,168,2,7,0,false
0.9.0,1,1,0,0,0,0,0,0,45,3,8,0,false
0.9.0,3,2,1,0,0,0,0,1,0,2,6,0,false
0.9.0,3,1,0,0,0,1,0,0,45,2,4,0,false
0.9.6,18,3,3,0,2,0,0,5,185,4,19,1,true
0.9.0,1,1,0,0,0,0,1,0,45,1,4,0,false
0.9.0,12,10,0,0,0,10,6,0,45,2,10,2,false
0.9.6,11,3,1,0,1,0,0,1,168,3,6,1,false
0.9.0,4,1,0,0,0,0,0,1,45,4,9,0,false
0.9.0,5,2,1,0,0,2,0,0,45,1,4,0,false
0.9.0,3,1,0,0,0,1,0,2,37,3,6,0,false
0.9.6,3,1,0,0,0,1,1,0,185,2,4,0,false
0.9.0,3,1,0,0,0,1,0,0,37,2,4,0,false
0.9.6,4,1,0,0,0,0,0,1,94,1,1,0,false
0.9.6,3,1,0,0,0,1,0,1,185,2,6,0,true
0.9.6,3,1,0,0,0,0,0,0,185,1,1,0,false
0.9.6,3,1,1,0,0,0,2,0,168,1,1,0,false
0.9.6,4,2,1,0,0,1,0,0,168,1,1,1,false
0.9.0,22,6,3,0,3,0,1,3,37,1,2,2,false
0.9.0,3,1,0,0,0,1,0,2,45,1,5,0,false
0.9.6,13,3,3,0,1,1,1,3,185,3,10,1,false
0.9.0,3,1,0,0,0,0,0,0,0,1,6,0,false
0.9.6,5,5,0,0,0,1,2,5,168,2,7,3,false
0.9.6,4,1,0,0,0,1,0,2,185,2,2,0,true
0.9.6,1,1,0,0,0,0,0,0,168,1,1,0,false
0.9.0,3,1,0,0,0,0,1,0,45,1,7,0,false
0.9.0,3,1,0,0,0,1,0,1,45,3,13,0,false
0.9.0,3,1,0,0,0,0,0,1,45,2,7,0,false
0.9.0,1,1,0,0,0,0,0,0,45,2,5,0,false
0.9.0,5,5,0,0,0,3,2,2,37,1,2,0,false
0.9.0,1,1,0,0,0,0,2,0,45,1,4,0,false
0.9.6,3,1,0,0,0,1,1,0,185,2,3,0,false
0.9.0,5,2,1,0,0,1,0,2,45,3,13,1,false
0.9.0,11,4,2,0,1,1,1,2,37,3,9,2,false
0.9.6,3,1,1,0,0,0,0,0,94,1,1,0,false
0.9.0,3,1,0,0,0,0,0,1,37,2,4,0,false
0.9.0,20,9,2,0,1,4,0,13,45,2,7,0,false
0.9.6,3,1,0,0,0,0,0,1,168,3,5,0,false
0.9.0,11,3,1,0,1,0,0,1,37,2,3,1,false
0.9.6,3,1,0,0,0,1,0,0,168,1,2,0,false
0.9.6,3,1,0,0,0,1,0,0,168,3,3,0,false
0.9.0,3,1,0,0,0,1,0,0,0,2,6,0,false
0.9.6,23,5,11,1,0,1,1,5,185,2,5,7,false
0.9.0,2,1,0,0,0,0,0,0,0,1,5,0,false
0.9.0,3,1,0,0,0,1,0,1,45,2,7,0,false
0.9.6,4,1,0,0,0,0,0,1,94,1,1,0,false
0.9.0,4,2,1,0,0,1,18,1,37,2,6,0,false
0.9.0,1,1,0,0,0,0,1,0,37,2,2,0,false
0.9.6,3,1,0,0,0,1,0,0,185,1,1,0,false
0.9.6,13,11,2,0,0,1,0,2,168,3,6,3,false
0.9.0,3,1,0,0,0,1,0,0,45,2,8,0,false
0.9.0,3,1,0,0,0,1,0,0,45,1,4,0,false
0.9.6,3,1,0,0,0,1,1,2,168,2,7,0,false
0.9.0,3,1,0,0,0,0,0,0,0,1,4,0,false
0.9.0,3,1,0,0,0,1,0,1,45,2,7,0,false
0.9.0,3,1,0,0,0,1,0,2,45,1,5,0,false
0.9.0,3,2,0,0,0,1,0,0,45,3,7,0,false
0.9.6,3,3,0,0,0,0,9,0,185,4,19,0,true
0.9.0,3,1,0,0,0,1,0,1,0,1,5,0,false
0.9.6,14,5,1,0,1,2,0,6,185,4,19,1,true
0.9.6,6,1,3,1,0,1,1,0,185,1,1,0,false
0.9.6,3,1,0,0,0,1,0,1,168,2,2,1,false
0.9.0,4,1,1,0,0,0,1,1,45,3,11,0,false
0.9.6,3,3,0,0,0,1,2,1,185,2,3,0,true
0.9.6,4,1,2,0,0,0,0,0,168,1,1,1,false
0.9.6,3,1,1,0,0,0,1,0,185,3,5,0,false
0.9.6,3,1,0,0,0,1,0,0,168,2,2,0,false
0.9.6,3,1,0,0,0,1,0,0,185,1,1,0,false
0.9.0,8,2,0,0,1,1,1,1,45,2,5,1,false
0.9.6,3,1,0,0,0,1,0,0,185,1,1,0,false
0.9.6,24,10,5,0,0,4,1,2,185,2,2,2,false
0.9.6,11,2,1,0,0,1,2,0,168,1,2,0,false
0.9.0,4,2,0,0,0,1,2,0,37,2,6,0,false
0.9.0,3,1,0,0,0,1,0,0,0,1,4,0,false
0.9.6,16,5,1,0,1,1,1,6,185,4,14,0,true
0.9.0,58,18,14,0,2,2,0,24,45,3,11,3,false
0.9.6,3,2,0,1,0,1,2,3,168,2,2,2,false
0.9.0,17,7,6,0,0,1,49,6,45,3,8,3,false
0.9.6,3,1,0,0,0,0,0,1,185,2,2,0,true
0.9.0,3,2,0,0,0,1,11,0,45,1,4,0,false
0.9.6,4,2,0,0,0,1,0,0,94,1,1,0,false
0.9.6,4,1,1,0,0,0,1,1,185,4,19,0,true
0.9.6,1,1,0,0,0,0,0,0,185,2,5,0,false
0.9.0,4,1,0,0,0,0,0,2,37,2,3,0,false
0.9.0,3,1,0,0,0,1,0,0,0,1,5,0,false
0.9.6,3,1,0,0,0,0,0,3,185,2,3,0,true
0.9.0,1,1,0,0,0,0,3,0,37,2,3,0,false
0.9.0,3,1,0,0,0,1,4,0,45,2,7,0,false
0.9.6,3,3,0,0,0,1,1,0,185,1,1,0,false
0.9.6,8,2,0,0,1,0,0,2,185,2,2,1,true
0.9.0,3,1,0,0,0,0,0,1,45,2,7,0,false
0.9.0,3,1,0,0,0,0,0,2,45,3,8,1,false
0.9.0,3,1,0,0,0,1,0,0,37,1,2,0,false
0.9.6,3,1,0,0,0,1,0,0,168,3,5,0,false
0.9.6,3,1,0,0,0,0,0,0,168,3,5,0,false
0.9.6,11,3,1,0,1,0,0,1,168,3,6,1,false
0.9.6,18,9,11,0,0,1,0,3,168,2,2,0,false
0.9.6,3,1,0,0,0,0,0,0,185,1,1,0,false
0.9.0,4,5,0,0,0,2,4,0,37,2,3,0,false
0.9.0,3,1,0,0,0,0,2,0,45,2,5,0,false
0.9.6,3,1,0,0,0,0,0,0,185,1,1,0,false
0.9.0,19,3,4,1,2,0,0,4,0,1,8,0,false
0.9.6,4,2,0,1,0,1,0,0,94,1,1,0,false
0.9.6,4,1,0,0,0,0,0,2,185,3,10,0,false
0.9.6,3,2,1,0,0,0,1,0,185,2,8,0,false
0.9.0,3,1,0,0,0,1,0,0,0,1,4,0,false
0.9.0,3,2,1,0,0,0,0,1,37,2,3,0,false
0.9.0,8,4,4,0,0,0,2,0,37,1,2,0,false
0.9.6,1,1,0,0,0,0,4,0,185,1,2,0,false
0.9.6,3,1,0,0,0,1,0,2,185,3,10,0,false
0.9.6,3,1,0,0,0,1,0,0,185,2,3,0,true
0.9.0,3,1,0,0,0,1,0,0,37,2,4,0,false
0.9.6,3,1,0,0,0,0,0,0,94,1,1,0,false
0.9.0,11,5,4,0,0,0,0,8,37,1,2,1,false
0.9.0,24,12,4,0,1,1,15,15,45,3,13,2,false
0.9.0,3,1,1,0,0,0,0,0,37,1,2,0,false
0.9.0,4,2,1,0,0,1,2,0,45,3,10,0,false
0.9.0,9,3,2,0,0,2,0,3,45,2,6,0,false
0.9.6,4,1,0,0,0,1,1,2,185,2,2,0,true
0.9.6,5,6,1,0,0,2,0,1,168,3,5,1,false
0.9.6,3,1,0,0,0,1,0,0,168,1,1,0,false
0.9.6,5,2,0,0,0,1,0,4,185,4,19,1,true
0.9.0,17,12,7,1,0,0,2,4,37,1,2,4,false
0.9.6,6,3,2,0,0,2,1,4,168,1,1,0,false
0.9.6,3,1,0,0,0,1,0,0,185,3,5,0,false
0.9.0,3,2,0,0,0,1,0,0,0,1,5,0,false
0.9.0,19,13,8,0,0,0,1,7,37,1,2,1,false
0.9.0,3,1,0,0,0,1,0,0,45,3,7,0,false
0.9.6,3,1,0,0,0,1,1,0,185,4,7,0,false
0.9.0,4,2,0,0,0,2,0,1,45,2,6,0,false
0.9.6,1,1,0,0,0,0,0,0,185,2,5,0,false
0.9.0,1,1,0,0,0,0,1,0,45,2,7,0,false
0.9.6,4,2,1,0,0,0,2,2,185,3,6,2,true
0.9.6,4,2,2,0,0,0,0,0,185,2,5,0,false
0.9.0,3,1,0,0,0,1,0,0,0,2,6,0,false
0.9.6,6,5,3,0,0,0,1,2,185,3,9,4,false
0.9.6,3,1,0,0,0,1,0,0,185,4,16,0,false
